c 130v matching/four-flow extension with matching size at most five
p cnf 1940 5755
-1 196 0
-1 391 0
1 -196 -391 0
-1 -586 0
-1 -781 0
1 586 781 0
-2 197 0
-2 392 0
2 -197 -392 0
-2 -587 0
-2 -782 0
2 587 782 0
-3 198 0
-3 393 0
3 -198 -393 0
-3 -588 0
-3 -783 0
3 588 783 0
-4 199 0
-4 394 0
4 -199 -394 0
-4 -589 0
-4 -784 0
4 589 784 0
-5 200 0
-5 395 0
5 -200 -395 0
-5 -590 0
-5 -785 0
5 590 785 0
-6 201 0
-6 396 0
6 -201 -396 0
-6 -591 0
-6 -786 0
6 591 786 0
-7 202 0
-7 397 0
7 -202 -397 0
-7 -592 0
-7 -787 0
7 592 787 0
-8 203 0
-8 398 0
8 -203 -398 0
-8 -593 0
-8 -788 0
8 593 788 0
-9 204 0
-9 399 0
9 -204 -399 0
-9 -594 0
-9 -789 0
9 594 789 0
-10 205 0
-10 400 0
10 -205 -400 0
-10 -595 0
-10 -790 0
10 595 790 0
-11 206 0
-11 401 0
11 -206 -401 0
-11 -596 0
-11 -791 0
11 596 791 0
-12 207 0
-12 402 0
12 -207 -402 0
-12 -597 0
-12 -792 0
12 597 792 0
-13 208 0
-13 403 0
13 -208 -403 0
-13 -598 0
-13 -793 0
13 598 793 0
-14 209 0
-14 404 0
14 -209 -404 0
-14 -599 0
-14 -794 0
14 599 794 0
-15 210 0
-15 405 0
15 -210 -405 0
-15 -600 0
-15 -795 0
15 600 795 0
-16 211 0
-16 406 0
16 -211 -406 0
-16 -601 0
-16 -796 0
16 601 796 0
-17 212 0
-17 407 0
17 -212 -407 0
-17 -602 0
-17 -797 0
17 602 797 0
-18 213 0
-18 408 0
18 -213 -408 0
-18 -603 0
-18 -798 0
18 603 798 0
-19 214 0
-19 409 0
19 -214 -409 0
-19 -604 0
-19 -799 0
19 604 799 0
-20 215 0
-20 410 0
20 -215 -410 0
-20 -605 0
-20 -800 0
20 605 800 0
-21 216 0
-21 411 0
21 -216 -411 0
-21 -606 0
-21 -801 0
21 606 801 0
-22 217 0
-22 412 0
22 -217 -412 0
-22 -607 0
-22 -802 0
22 607 802 0
-23 218 0
-23 413 0
23 -218 -413 0
-23 -608 0
-23 -803 0
23 608 803 0
-24 219 0
-24 414 0
24 -219 -414 0
-24 -609 0
-24 -804 0
24 609 804 0
-25 220 0
-25 415 0
25 -220 -415 0
-25 -610 0
-25 -805 0
25 610 805 0
-26 221 0
-26 416 0
26 -221 -416 0
-26 -611 0
-26 -806 0
26 611 806 0
-27 222 0
-27 417 0
27 -222 -417 0
-27 -612 0
-27 -807 0
27 612 807 0
-28 223 0
-28 418 0
28 -223 -418 0
-28 -613 0
-28 -808 0
28 613 808 0
-29 224 0
-29 419 0
29 -224 -419 0
-29 -614 0
-29 -809 0
29 614 809 0
-30 225 0
-30 420 0
30 -225 -420 0
-30 -615 0
-30 -810 0
30 615 810 0
-31 226 0
-31 421 0
31 -226 -421 0
-31 -616 0
-31 -811 0
31 616 811 0
-32 227 0
-32 422 0
32 -227 -422 0
-32 -617 0
-32 -812 0
32 617 812 0
-33 228 0
-33 423 0
33 -228 -423 0
-33 -618 0
-33 -813 0
33 618 813 0
-34 229 0
-34 424 0
34 -229 -424 0
-34 -619 0
-34 -814 0
34 619 814 0
-35 230 0
-35 425 0
35 -230 -425 0
-35 -620 0
-35 -815 0
35 620 815 0
-36 231 0
-36 426 0
36 -231 -426 0
-36 -621 0
-36 -816 0
36 621 816 0
-37 232 0
-37 427 0
37 -232 -427 0
-37 -622 0
-37 -817 0
37 622 817 0
-38 233 0
-38 428 0
38 -233 -428 0
-38 -623 0
-38 -818 0
38 623 818 0
-39 234 0
-39 429 0
39 -234 -429 0
-39 -624 0
-39 -819 0
39 624 819 0
-40 235 0
-40 430 0
40 -235 -430 0
-40 -625 0
-40 -820 0
40 625 820 0
-41 236 0
-41 431 0
41 -236 -431 0
-41 -626 0
-41 -821 0
41 626 821 0
-42 237 0
-42 432 0
42 -237 -432 0
-42 -627 0
-42 -822 0
42 627 822 0
-43 238 0
-43 433 0
43 -238 -433 0
-43 -628 0
-43 -823 0
43 628 823 0
-44 239 0
-44 434 0
44 -239 -434 0
-44 -629 0
-44 -824 0
44 629 824 0
-45 240 0
-45 435 0
45 -240 -435 0
-45 -630 0
-45 -825 0
45 630 825 0
-46 241 0
-46 436 0
46 -241 -436 0
-46 -631 0
-46 -826 0
46 631 826 0
-47 242 0
-47 437 0
47 -242 -437 0
-47 -632 0
-47 -827 0
47 632 827 0
-48 243 0
-48 438 0
48 -243 -438 0
-48 -633 0
-48 -828 0
48 633 828 0
-49 244 0
-49 439 0
49 -244 -439 0
-49 -634 0
-49 -829 0
49 634 829 0
-50 245 0
-50 440 0
50 -245 -440 0
-50 -635 0
-50 -830 0
50 635 830 0
-51 246 0
-51 441 0
51 -246 -441 0
-51 -636 0
-51 -831 0
51 636 831 0
-52 247 0
-52 442 0
52 -247 -442 0
-52 -637 0
-52 -832 0
52 637 832 0
-53 248 0
-53 443 0
53 -248 -443 0
-53 -638 0
-53 -833 0
53 638 833 0
-54 249 0
-54 444 0
54 -249 -444 0
-54 -639 0
-54 -834 0
54 639 834 0
-55 250 0
-55 445 0
55 -250 -445 0
-55 -640 0
-55 -835 0
55 640 835 0
-56 251 0
-56 446 0
56 -251 -446 0
-56 -641 0
-56 -836 0
56 641 836 0
-57 252 0
-57 447 0
57 -252 -447 0
-57 -642 0
-57 -837 0
57 642 837 0
-58 253 0
-58 448 0
58 -253 -448 0
-58 -643 0
-58 -838 0
58 643 838 0
-59 254 0
-59 449 0
59 -254 -449 0
-59 -644 0
-59 -839 0
59 644 839 0
-60 255 0
-60 450 0
60 -255 -450 0
-60 -645 0
-60 -840 0
60 645 840 0
-61 256 0
-61 451 0
61 -256 -451 0
-61 -646 0
-61 -841 0
61 646 841 0
-62 257 0
-62 452 0
62 -257 -452 0
-62 -647 0
-62 -842 0
62 647 842 0
-63 258 0
-63 453 0
63 -258 -453 0
-63 -648 0
-63 -843 0
63 648 843 0
-64 259 0
-64 454 0
64 -259 -454 0
-64 -649 0
-64 -844 0
64 649 844 0
-65 260 0
-65 455 0
65 -260 -455 0
-65 -650 0
-65 -845 0
65 650 845 0
-66 261 0
-66 456 0
66 -261 -456 0
-66 -651 0
-66 -846 0
66 651 846 0
-67 262 0
-67 457 0
67 -262 -457 0
-67 -652 0
-67 -847 0
67 652 847 0
-68 263 0
-68 458 0
68 -263 -458 0
-68 -653 0
-68 -848 0
68 653 848 0
-69 264 0
-69 459 0
69 -264 -459 0
-69 -654 0
-69 -849 0
69 654 849 0
-70 265 0
-70 460 0
70 -265 -460 0
-70 -655 0
-70 -850 0
70 655 850 0
-71 266 0
-71 461 0
71 -266 -461 0
-71 -656 0
-71 -851 0
71 656 851 0
-72 267 0
-72 462 0
72 -267 -462 0
-72 -657 0
-72 -852 0
72 657 852 0
-73 268 0
-73 463 0
73 -268 -463 0
-73 -658 0
-73 -853 0
73 658 853 0
-74 269 0
-74 464 0
74 -269 -464 0
-74 -659 0
-74 -854 0
74 659 854 0
-75 270 0
-75 465 0
75 -270 -465 0
-75 -660 0
-75 -855 0
75 660 855 0
-76 271 0
-76 466 0
76 -271 -466 0
-76 -661 0
-76 -856 0
76 661 856 0
-77 272 0
-77 467 0
77 -272 -467 0
-77 -662 0
-77 -857 0
77 662 857 0
-78 273 0
-78 468 0
78 -273 -468 0
-78 -663 0
-78 -858 0
78 663 858 0
-79 274 0
-79 469 0
79 -274 -469 0
-79 -664 0
-79 -859 0
79 664 859 0
-80 275 0
-80 470 0
80 -275 -470 0
-80 -665 0
-80 -860 0
80 665 860 0
-81 276 0
-81 471 0
81 -276 -471 0
-81 -666 0
-81 -861 0
81 666 861 0
-82 277 0
-82 472 0
82 -277 -472 0
-82 -667 0
-82 -862 0
82 667 862 0
-83 278 0
-83 473 0
83 -278 -473 0
-83 -668 0
-83 -863 0
83 668 863 0
-84 279 0
-84 474 0
84 -279 -474 0
-84 -669 0
-84 -864 0
84 669 864 0
-85 280 0
-85 475 0
85 -280 -475 0
-85 -670 0
-85 -865 0
85 670 865 0
-86 281 0
-86 476 0
86 -281 -476 0
-86 -671 0
-86 -866 0
86 671 866 0
-87 282 0
-87 477 0
87 -282 -477 0
-87 -672 0
-87 -867 0
87 672 867 0
-88 283 0
-88 478 0
88 -283 -478 0
-88 -673 0
-88 -868 0
88 673 868 0
-89 284 0
-89 479 0
89 -284 -479 0
-89 -674 0
-89 -869 0
89 674 869 0
-90 285 0
-90 480 0
90 -285 -480 0
-90 -675 0
-90 -870 0
90 675 870 0
-91 286 0
-91 481 0
91 -286 -481 0
-91 -676 0
-91 -871 0
91 676 871 0
-92 287 0
-92 482 0
92 -287 -482 0
-92 -677 0
-92 -872 0
92 677 872 0
-93 288 0
-93 483 0
93 -288 -483 0
-93 -678 0
-93 -873 0
93 678 873 0
-94 289 0
-94 484 0
94 -289 -484 0
-94 -679 0
-94 -874 0
94 679 874 0
-95 290 0
-95 485 0
95 -290 -485 0
-95 -680 0
-95 -875 0
95 680 875 0
-96 291 0
-96 486 0
96 -291 -486 0
-96 -681 0
-96 -876 0
96 681 876 0
-97 292 0
-97 487 0
97 -292 -487 0
-97 -682 0
-97 -877 0
97 682 877 0
-98 293 0
-98 488 0
98 -293 -488 0
-98 -683 0
-98 -878 0
98 683 878 0
-99 294 0
-99 489 0
99 -294 -489 0
-99 -684 0
-99 -879 0
99 684 879 0
-100 295 0
-100 490 0
100 -295 -490 0
-100 -685 0
-100 -880 0
100 685 880 0
-101 296 0
-101 491 0
101 -296 -491 0
-101 -686 0
-101 -881 0
101 686 881 0
-102 297 0
-102 492 0
102 -297 -492 0
-102 -687 0
-102 -882 0
102 687 882 0
-103 298 0
-103 493 0
103 -298 -493 0
-103 -688 0
-103 -883 0
103 688 883 0
-104 299 0
-104 494 0
104 -299 -494 0
-104 -689 0
-104 -884 0
104 689 884 0
-105 300 0
-105 495 0
105 -300 -495 0
-105 -690 0
-105 -885 0
105 690 885 0
-106 301 0
-106 496 0
106 -301 -496 0
-106 -691 0
-106 -886 0
106 691 886 0
-107 302 0
-107 497 0
107 -302 -497 0
-107 -692 0
-107 -887 0
107 692 887 0
-108 303 0
-108 498 0
108 -303 -498 0
-108 -693 0
-108 -888 0
108 693 888 0
-109 304 0
-109 499 0
109 -304 -499 0
-109 -694 0
-109 -889 0
109 694 889 0
-110 305 0
-110 500 0
110 -305 -500 0
-110 -695 0
-110 -890 0
110 695 890 0
-111 306 0
-111 501 0
111 -306 -501 0
-111 -696 0
-111 -891 0
111 696 891 0
-112 307 0
-112 502 0
112 -307 -502 0
-112 -697 0
-112 -892 0
112 697 892 0
-113 308 0
-113 503 0
113 -308 -503 0
-113 -698 0
-113 -893 0
113 698 893 0
-114 309 0
-114 504 0
114 -309 -504 0
-114 -699 0
-114 -894 0
114 699 894 0
-115 310 0
-115 505 0
115 -310 -505 0
-115 -700 0
-115 -895 0
115 700 895 0
-116 311 0
-116 506 0
116 -311 -506 0
-116 -701 0
-116 -896 0
116 701 896 0
-117 312 0
-117 507 0
117 -312 -507 0
-117 -702 0
-117 -897 0
117 702 897 0
-118 313 0
-118 508 0
118 -313 -508 0
-118 -703 0
-118 -898 0
118 703 898 0
-119 314 0
-119 509 0
119 -314 -509 0
-119 -704 0
-119 -899 0
119 704 899 0
-120 315 0
-120 510 0
120 -315 -510 0
-120 -705 0
-120 -900 0
120 705 900 0
-121 316 0
-121 511 0
121 -316 -511 0
-121 -706 0
-121 -901 0
121 706 901 0
-122 317 0
-122 512 0
122 -317 -512 0
-122 -707 0
-122 -902 0
122 707 902 0
-123 318 0
-123 513 0
123 -318 -513 0
-123 -708 0
-123 -903 0
123 708 903 0
-124 319 0
-124 514 0
124 -319 -514 0
-124 -709 0
-124 -904 0
124 709 904 0
-125 320 0
-125 515 0
125 -320 -515 0
-125 -710 0
-125 -905 0
125 710 905 0
-126 321 0
-126 516 0
126 -321 -516 0
-126 -711 0
-126 -906 0
126 711 906 0
-127 322 0
-127 517 0
127 -322 -517 0
-127 -712 0
-127 -907 0
127 712 907 0
-128 323 0
-128 518 0
128 -323 -518 0
-128 -713 0
-128 -908 0
128 713 908 0
-129 324 0
-129 519 0
129 -324 -519 0
-129 -714 0
-129 -909 0
129 714 909 0
-130 325 0
-130 520 0
130 -325 -520 0
-130 -715 0
-130 -910 0
130 715 910 0
-131 326 0
-131 521 0
131 -326 -521 0
-131 -716 0
-131 -911 0
131 716 911 0
-132 327 0
-132 522 0
132 -327 -522 0
-132 -717 0
-132 -912 0
132 717 912 0
-133 328 0
-133 523 0
133 -328 -523 0
-133 -718 0
-133 -913 0
133 718 913 0
-134 329 0
-134 524 0
134 -329 -524 0
-134 -719 0
-134 -914 0
134 719 914 0
-135 330 0
-135 525 0
135 -330 -525 0
-135 -720 0
-135 -915 0
135 720 915 0
-136 331 0
-136 526 0
136 -331 -526 0
-136 -721 0
-136 -916 0
136 721 916 0
-137 332 0
-137 527 0
137 -332 -527 0
-137 -722 0
-137 -917 0
137 722 917 0
-138 333 0
-138 528 0
138 -333 -528 0
-138 -723 0
-138 -918 0
138 723 918 0
-139 334 0
-139 529 0
139 -334 -529 0
-139 -724 0
-139 -919 0
139 724 919 0
-140 335 0
-140 530 0
140 -335 -530 0
-140 -725 0
-140 -920 0
140 725 920 0
-141 336 0
-141 531 0
141 -336 -531 0
-141 -726 0
-141 -921 0
141 726 921 0
-142 337 0
-142 532 0
142 -337 -532 0
-142 -727 0
-142 -922 0
142 727 922 0
-143 338 0
-143 533 0
143 -338 -533 0
-143 -728 0
-143 -923 0
143 728 923 0
-144 339 0
-144 534 0
144 -339 -534 0
-144 -729 0
-144 -924 0
144 729 924 0
-145 340 0
-145 535 0
145 -340 -535 0
-145 -730 0
-145 -925 0
145 730 925 0
-146 341 0
-146 536 0
146 -341 -536 0
-146 -731 0
-146 -926 0
146 731 926 0
-147 342 0
-147 537 0
147 -342 -537 0
-147 -732 0
-147 -927 0
147 732 927 0
-148 343 0
-148 538 0
148 -343 -538 0
-148 -733 0
-148 -928 0
148 733 928 0
-149 344 0
-149 539 0
149 -344 -539 0
-149 -734 0
-149 -929 0
149 734 929 0
-150 345 0
-150 540 0
150 -345 -540 0
-150 -735 0
-150 -930 0
150 735 930 0
-151 346 0
-151 541 0
151 -346 -541 0
-151 -736 0
-151 -931 0
151 736 931 0
-152 347 0
-152 542 0
152 -347 -542 0
-152 -737 0
-152 -932 0
152 737 932 0
-153 348 0
-153 543 0
153 -348 -543 0
-153 -738 0
-153 -933 0
153 738 933 0
-154 349 0
-154 544 0
154 -349 -544 0
-154 -739 0
-154 -934 0
154 739 934 0
-155 350 0
-155 545 0
155 -350 -545 0
-155 -740 0
-155 -935 0
155 740 935 0
-156 351 0
-156 546 0
156 -351 -546 0
-156 -741 0
-156 -936 0
156 741 936 0
-157 352 0
-157 547 0
157 -352 -547 0
-157 -742 0
-157 -937 0
157 742 937 0
-158 353 0
-158 548 0
158 -353 -548 0
-158 -743 0
-158 -938 0
158 743 938 0
-159 354 0
-159 549 0
159 -354 -549 0
-159 -744 0
-159 -939 0
159 744 939 0
-160 355 0
-160 550 0
160 -355 -550 0
-160 -745 0
-160 -940 0
160 745 940 0
-161 356 0
-161 551 0
161 -356 -551 0
-161 -746 0
-161 -941 0
161 746 941 0
-162 357 0
-162 552 0
162 -357 -552 0
-162 -747 0
-162 -942 0
162 747 942 0
-163 358 0
-163 553 0
163 -358 -553 0
-163 -748 0
-163 -943 0
163 748 943 0
-164 359 0
-164 554 0
164 -359 -554 0
-164 -749 0
-164 -944 0
164 749 944 0
-165 360 0
-165 555 0
165 -360 -555 0
-165 -750 0
-165 -945 0
165 750 945 0
-166 361 0
-166 556 0
166 -361 -556 0
-166 -751 0
-166 -946 0
166 751 946 0
-167 362 0
-167 557 0
167 -362 -557 0
-167 -752 0
-167 -947 0
167 752 947 0
-168 363 0
-168 558 0
168 -363 -558 0
-168 -753 0
-168 -948 0
168 753 948 0
-169 364 0
-169 559 0
169 -364 -559 0
-169 -754 0
-169 -949 0
169 754 949 0
-170 365 0
-170 560 0
170 -365 -560 0
-170 -755 0
-170 -950 0
170 755 950 0
-171 366 0
-171 561 0
171 -366 -561 0
-171 -756 0
-171 -951 0
171 756 951 0
-172 367 0
-172 562 0
172 -367 -562 0
-172 -757 0
-172 -952 0
172 757 952 0
-173 368 0
-173 563 0
173 -368 -563 0
-173 -758 0
-173 -953 0
173 758 953 0
-174 369 0
-174 564 0
174 -369 -564 0
-174 -759 0
-174 -954 0
174 759 954 0
-175 370 0
-175 565 0
175 -370 -565 0
-175 -760 0
-175 -955 0
175 760 955 0
-176 371 0
-176 566 0
176 -371 -566 0
-176 -761 0
-176 -956 0
176 761 956 0
-177 372 0
-177 567 0
177 -372 -567 0
-177 -762 0
-177 -957 0
177 762 957 0
-178 373 0
-178 568 0
178 -373 -568 0
-178 -763 0
-178 -958 0
178 763 958 0
-179 374 0
-179 569 0
179 -374 -569 0
-179 -764 0
-179 -959 0
179 764 959 0
-180 375 0
-180 570 0
180 -375 -570 0
-180 -765 0
-180 -960 0
180 765 960 0
-181 376 0
-181 571 0
181 -376 -571 0
-181 -766 0
-181 -961 0
181 766 961 0
-182 377 0
-182 572 0
182 -377 -572 0
-182 -767 0
-182 -962 0
182 767 962 0
-183 378 0
-183 573 0
183 -378 -573 0
-183 -768 0
-183 -963 0
183 768 963 0
-184 379 0
-184 574 0
184 -379 -574 0
-184 -769 0
-184 -964 0
184 769 964 0
-185 380 0
-185 575 0
185 -380 -575 0
-185 -770 0
-185 -965 0
185 770 965 0
-186 381 0
-186 576 0
186 -381 -576 0
-186 -771 0
-186 -966 0
186 771 966 0
-187 382 0
-187 577 0
187 -382 -577 0
-187 -772 0
-187 -967 0
187 772 967 0
-188 383 0
-188 578 0
188 -383 -578 0
-188 -773 0
-188 -968 0
188 773 968 0
-189 384 0
-189 579 0
189 -384 -579 0
-189 -774 0
-189 -969 0
189 774 969 0
-190 385 0
-190 580 0
190 -385 -580 0
-190 -775 0
-190 -970 0
190 775 970 0
-191 386 0
-191 581 0
191 -386 -581 0
-191 -776 0
-191 -971 0
191 776 971 0
-192 387 0
-192 582 0
192 -387 -582 0
-192 -777 0
-192 -972 0
192 777 972 0
-193 388 0
-193 583 0
193 -388 -583 0
-193 -778 0
-193 -973 0
193 778 973 0
-194 389 0
-194 584 0
194 -389 -584 0
-194 -779 0
-194 -974 0
194 779 974 0
-195 390 0
-195 585 0
195 -390 -585 0
-195 -780 0
-195 -975 0
195 780 975 0
-1 -2 0
-1 -3 0
-2 -3 0
-4 -5 0
-4 -6 0
-5 -6 0
-7 -8 0
-7 -9 0
-8 -9 0
-10 -11 0
-10 -12 0
-11 -12 0
-13 -14 0
-13 -15 0
-14 -15 0
-16 -17 0
-16 -18 0
-17 -18 0
-19 -20 0
-19 -21 0
-20 -21 0
-22 -23 0
-22 -24 0
-23 -24 0
-25 -26 0
-25 -27 0
-26 -27 0
-4 -28 0
-4 -29 0
-28 -29 0
-7 -30 0
-7 -31 0
-30 -31 0
-10 -13 0
-10 -32 0
-13 -32 0
-11 -16 0
-11 -33 0
-16 -33 0
-12 -14 0
-12 -25 0
-14 -25 0
-5 -19 0
-5 -26 0
-19 -26 0
-6 -17 0
-6 -20 0
-17 -20 0
-8 -18 0
-8 -21 0
-18 -21 0
-15 -22 0
-15 -30 0
-22 -30 0
-23 -28 0
-23 -31 0
-28 -31 0
-9 -24 0
-9 -29 0
-24 -29 0
-34 -35 0
-34 -36 0
-35 -36 0
-37 -38 0
-37 -39 0
-38 -39 0
-40 -41 0
-40 -42 0
-41 -42 0
-34 -43 0
-34 -44 0
-43 -44 0
-27 -37 0
-27 -45 0
-37 -45 0
-35 -38 0
-35 -40 0
-38 -40 0
-39 -43 0
-39 -46 0
-43 -46 0
-41 -44 0
-41 -45 0
-44 -45 0
-47 -48 0
-47 -49 0
-48 -49 0
-50 -51 0
-50 -52 0
-51 -52 0
-53 -54 0
-53 -55 0
-54 -55 0
-47 -56 0
-47 -57 0
-56 -57 0
-32 -50 0
-32 -58 0
-50 -58 0
-48 -51 0
-48 -53 0
-51 -53 0
-52 -56 0
-52 -59 0
-56 -59 0
-54 -57 0
-54 -58 0
-57 -58 0
-1 -60 0
-1 -61 0
-60 -61 0
-62 -63 0
-62 -64 0
-63 -64 0
-65 -66 0
-65 -67 0
-66 -67 0
-60 -68 0
-60 -69 0
-68 -69 0
-33 -62 0
-33 -70 0
-62 -70 0
-61 -63 0
-61 -65 0
-63 -65 0
-64 -68 0
-64 -71 0
-68 -71 0
-66 -69 0
-66 -70 0
-69 -70 0
-2 -72 0
-2 -73 0
-72 -73 0
-74 -75 0
-74 -76 0
-75 -76 0
-77 -78 0
-77 -79 0
-78 -79 0
-72 -80 0
-72 -81 0
-80 -81 0
-36 -74 0
-36 -82 0
-74 -82 0
-73 -75 0
-73 -77 0
-75 -77 0
-76 -80 0
-76 -83 0
-80 -83 0
-78 -81 0
-78 -82 0
-81 -82 0
-3 -84 0
-3 -85 0
-84 -85 0
-86 -87 0
-86 -88 0
-87 -88 0
-89 -90 0
-89 -91 0
-90 -91 0
-84 -92 0
-84 -93 0
-92 -93 0
-49 -86 0
-49 -94 0
-86 -94 0
-85 -87 0
-85 -89 0
-87 -89 0
-88 -92 0
-88 -95 0
-92 -95 0
-90 -93 0
-90 -94 0
-93 -94 0
-42 -46 0
-42 -96 0
-46 -96 0
-55 -59 0
-55 -97 0
-59 -97 0
-67 -71 0
-67 -98 0
-71 -98 0
-79 -83 0
-79 -99 0
-83 -99 0
-91 -95 0
-91 -100 0
-95 -100 0
-101 -102 0
-101 -103 0
-102 -103 0
-104 -105 0
-104 -106 0
-105 -106 0
-107 -108 0
-107 -109 0
-108 -109 0
-110 -111 0
-110 -112 0
-111 -112 0
-113 -114 0
-113 -115 0
-114 -115 0
-116 -117 0
-116 -118 0
-117 -118 0
-119 -120 0
-119 -121 0
-120 -121 0
-122 -123 0
-122 -124 0
-123 -124 0
-125 -126 0
-125 -127 0
-126 -127 0
-104 -128 0
-104 -129 0
-128 -129 0
-107 -130 0
-107 -131 0
-130 -131 0
-110 -113 0
-110 -132 0
-113 -132 0
-111 -116 0
-111 -133 0
-116 -133 0
-112 -114 0
-112 -125 0
-114 -125 0
-105 -119 0
-105 -126 0
-119 -126 0
-106 -117 0
-106 -120 0
-117 -120 0
-108 -118 0
-108 -121 0
-118 -121 0
-115 -122 0
-115 -130 0
-122 -130 0
-123 -128 0
-123 -131 0
-128 -131 0
-109 -124 0
-109 -129 0
-124 -129 0
-134 -135 0
-134 -136 0
-135 -136 0
-137 -138 0
-137 -139 0
-138 -139 0
-140 -141 0
-140 -142 0
-141 -142 0
-134 -143 0
-134 -144 0
-143 -144 0
-127 -137 0
-127 -145 0
-137 -145 0
-135 -138 0
-135 -140 0
-138 -140 0
-139 -143 0
-139 -146 0
-143 -146 0
-141 -144 0
-141 -145 0
-144 -145 0
-147 -148 0
-147 -149 0
-148 -149 0
-150 -151 0
-150 -152 0
-151 -152 0
-153 -154 0
-153 -155 0
-154 -155 0
-147 -156 0
-147 -157 0
-156 -157 0
-132 -150 0
-132 -158 0
-150 -158 0
-148 -151 0
-148 -153 0
-151 -153 0
-152 -156 0
-152 -159 0
-156 -159 0
-154 -157 0
-154 -158 0
-157 -158 0
-101 -160 0
-101 -161 0
-160 -161 0
-162 -163 0
-162 -164 0
-163 -164 0
-165 -166 0
-165 -167 0
-166 -167 0
-160 -168 0
-160 -169 0
-168 -169 0
-133 -162 0
-133 -170 0
-162 -170 0
-161 -163 0
-161 -165 0
-163 -165 0
-164 -168 0
-164 -171 0
-168 -171 0
-166 -169 0
-166 -170 0
-169 -170 0
-102 -172 0
-102 -173 0
-172 -173 0
-174 -175 0
-174 -176 0
-175 -176 0
-177 -178 0
-177 -179 0
-178 -179 0
-172 -180 0
-172 -181 0
-180 -181 0
-136 -174 0
-136 -182 0
-174 -182 0
-173 -175 0
-173 -177 0
-175 -177 0
-176 -180 0
-176 -183 0
-180 -183 0
-178 -181 0
-178 -182 0
-181 -182 0
-103 -184 0
-103 -185 0
-184 -185 0
-186 -187 0
-186 -188 0
-187 -188 0
-189 -190 0
-189 -191 0
-190 -191 0
-184 -192 0
-184 -193 0
-192 -193 0
-149 -186 0
-149 -194 0
-186 -194 0
-185 -187 0
-185 -189 0
-187 -189 0
-188 -192 0
-188 -195 0
-192 -195 0
-190 -193 0
-190 -194 0
-193 -194 0
-96 -142 0
-96 -146 0
-142 -146 0
-97 -155 0
-97 -159 0
-155 -159 0
-98 -167 0
-98 -171 0
-167 -171 0
-99 -179 0
-99 -183 0
-179 -183 0
-100 -191 0
-100 -195 0
-191 -195 0
-196 197 198 0
196 -197 198 0
196 197 -198 0
-196 -197 -198 0
-391 392 393 0
391 -392 393 0
391 392 -393 0
-391 -392 -393 0
-586 587 588 0
586 -587 588 0
586 587 -588 0
-586 -587 -588 0
-781 782 783 0
781 -782 783 0
781 782 -783 0
-781 -782 -783 0
-199 200 201 0
199 -200 201 0
199 200 -201 0
-199 -200 -201 0
-394 395 396 0
394 -395 396 0
394 395 -396 0
-394 -395 -396 0
-589 590 591 0
589 -590 591 0
589 590 -591 0
-589 -590 -591 0
-784 785 786 0
784 -785 786 0
784 785 -786 0
-784 -785 -786 0
-202 203 204 0
202 -203 204 0
202 203 -204 0
-202 -203 -204 0
-397 398 399 0
397 -398 399 0
397 398 -399 0
-397 -398 -399 0
-592 593 594 0
592 -593 594 0
592 593 -594 0
-592 -593 -594 0
-787 788 789 0
787 -788 789 0
787 788 -789 0
-787 -788 -789 0
-205 206 207 0
205 -206 207 0
205 206 -207 0
-205 -206 -207 0
-400 401 402 0
400 -401 402 0
400 401 -402 0
-400 -401 -402 0
-595 596 597 0
595 -596 597 0
595 596 -597 0
-595 -596 -597 0
-790 791 792 0
790 -791 792 0
790 791 -792 0
-790 -791 -792 0
-208 209 210 0
208 -209 210 0
208 209 -210 0
-208 -209 -210 0
-403 404 405 0
403 -404 405 0
403 404 -405 0
-403 -404 -405 0
-598 599 600 0
598 -599 600 0
598 599 -600 0
-598 -599 -600 0
-793 794 795 0
793 -794 795 0
793 794 -795 0
-793 -794 -795 0
-211 212 213 0
211 -212 213 0
211 212 -213 0
-211 -212 -213 0
-406 407 408 0
406 -407 408 0
406 407 -408 0
-406 -407 -408 0
-601 602 603 0
601 -602 603 0
601 602 -603 0
-601 -602 -603 0
-796 797 798 0
796 -797 798 0
796 797 -798 0
-796 -797 -798 0
-214 215 216 0
214 -215 216 0
214 215 -216 0
-214 -215 -216 0
-409 410 411 0
409 -410 411 0
409 410 -411 0
-409 -410 -411 0
-604 605 606 0
604 -605 606 0
604 605 -606 0
-604 -605 -606 0
-799 800 801 0
799 -800 801 0
799 800 -801 0
-799 -800 -801 0
-217 218 219 0
217 -218 219 0
217 218 -219 0
-217 -218 -219 0
-412 413 414 0
412 -413 414 0
412 413 -414 0
-412 -413 -414 0
-607 608 609 0
607 -608 609 0
607 608 -609 0
-607 -608 -609 0
-802 803 804 0
802 -803 804 0
802 803 -804 0
-802 -803 -804 0
-220 221 222 0
220 -221 222 0
220 221 -222 0
-220 -221 -222 0
-415 416 417 0
415 -416 417 0
415 416 -417 0
-415 -416 -417 0
-610 611 612 0
610 -611 612 0
610 611 -612 0
-610 -611 -612 0
-805 806 807 0
805 -806 807 0
805 806 -807 0
-805 -806 -807 0
-199 223 224 0
199 -223 224 0
199 223 -224 0
-199 -223 -224 0
-394 418 419 0
394 -418 419 0
394 418 -419 0
-394 -418 -419 0
-589 613 614 0
589 -613 614 0
589 613 -614 0
-589 -613 -614 0
-784 808 809 0
784 -808 809 0
784 808 -809 0
-784 -808 -809 0
-202 225 226 0
202 -225 226 0
202 225 -226 0
-202 -225 -226 0
-397 420 421 0
397 -420 421 0
397 420 -421 0
-397 -420 -421 0
-592 615 616 0
592 -615 616 0
592 615 -616 0
-592 -615 -616 0
-787 810 811 0
787 -810 811 0
787 810 -811 0
-787 -810 -811 0
-205 208 227 0
205 -208 227 0
205 208 -227 0
-205 -208 -227 0
-400 403 422 0
400 -403 422 0
400 403 -422 0
-400 -403 -422 0
-595 598 617 0
595 -598 617 0
595 598 -617 0
-595 -598 -617 0
-790 793 812 0
790 -793 812 0
790 793 -812 0
-790 -793 -812 0
-206 211 228 0
206 -211 228 0
206 211 -228 0
-206 -211 -228 0
-401 406 423 0
401 -406 423 0
401 406 -423 0
-401 -406 -423 0
-596 601 618 0
596 -601 618 0
596 601 -618 0
-596 -601 -618 0
-791 796 813 0
791 -796 813 0
791 796 -813 0
-791 -796 -813 0
-207 209 220 0
207 -209 220 0
207 209 -220 0
-207 -209 -220 0
-402 404 415 0
402 -404 415 0
402 404 -415 0
-402 -404 -415 0
-597 599 610 0
597 -599 610 0
597 599 -610 0
-597 -599 -610 0
-792 794 805 0
792 -794 805 0
792 794 -805 0
-792 -794 -805 0
-200 214 221 0
200 -214 221 0
200 214 -221 0
-200 -214 -221 0
-395 409 416 0
395 -409 416 0
395 409 -416 0
-395 -409 -416 0
-590 604 611 0
590 -604 611 0
590 604 -611 0
-590 -604 -611 0
-785 799 806 0
785 -799 806 0
785 799 -806 0
-785 -799 -806 0
-201 212 215 0
201 -212 215 0
201 212 -215 0
-201 -212 -215 0
-396 407 410 0
396 -407 410 0
396 407 -410 0
-396 -407 -410 0
-591 602 605 0
591 -602 605 0
591 602 -605 0
-591 -602 -605 0
-786 797 800 0
786 -797 800 0
786 797 -800 0
-786 -797 -800 0
-203 213 216 0
203 -213 216 0
203 213 -216 0
-203 -213 -216 0
-398 408 411 0
398 -408 411 0
398 408 -411 0
-398 -408 -411 0
-593 603 606 0
593 -603 606 0
593 603 -606 0
-593 -603 -606 0
-788 798 801 0
788 -798 801 0
788 798 -801 0
-788 -798 -801 0
-210 217 225 0
210 -217 225 0
210 217 -225 0
-210 -217 -225 0
-405 412 420 0
405 -412 420 0
405 412 -420 0
-405 -412 -420 0
-600 607 615 0
600 -607 615 0
600 607 -615 0
-600 -607 -615 0
-795 802 810 0
795 -802 810 0
795 802 -810 0
-795 -802 -810 0
-218 223 226 0
218 -223 226 0
218 223 -226 0
-218 -223 -226 0
-413 418 421 0
413 -418 421 0
413 418 -421 0
-413 -418 -421 0
-608 613 616 0
608 -613 616 0
608 613 -616 0
-608 -613 -616 0
-803 808 811 0
803 -808 811 0
803 808 -811 0
-803 -808 -811 0
-204 219 224 0
204 -219 224 0
204 219 -224 0
-204 -219 -224 0
-399 414 419 0
399 -414 419 0
399 414 -419 0
-399 -414 -419 0
-594 609 614 0
594 -609 614 0
594 609 -614 0
-594 -609 -614 0
-789 804 809 0
789 -804 809 0
789 804 -809 0
-789 -804 -809 0
-229 230 231 0
229 -230 231 0
229 230 -231 0
-229 -230 -231 0
-424 425 426 0
424 -425 426 0
424 425 -426 0
-424 -425 -426 0
-619 620 621 0
619 -620 621 0
619 620 -621 0
-619 -620 -621 0
-814 815 816 0
814 -815 816 0
814 815 -816 0
-814 -815 -816 0
-232 233 234 0
232 -233 234 0
232 233 -234 0
-232 -233 -234 0
-427 428 429 0
427 -428 429 0
427 428 -429 0
-427 -428 -429 0
-622 623 624 0
622 -623 624 0
622 623 -624 0
-622 -623 -624 0
-817 818 819 0
817 -818 819 0
817 818 -819 0
-817 -818 -819 0
-235 236 237 0
235 -236 237 0
235 236 -237 0
-235 -236 -237 0
-430 431 432 0
430 -431 432 0
430 431 -432 0
-430 -431 -432 0
-625 626 627 0
625 -626 627 0
625 626 -627 0
-625 -626 -627 0
-820 821 822 0
820 -821 822 0
820 821 -822 0
-820 -821 -822 0
-229 238 239 0
229 -238 239 0
229 238 -239 0
-229 -238 -239 0
-424 433 434 0
424 -433 434 0
424 433 -434 0
-424 -433 -434 0
-619 628 629 0
619 -628 629 0
619 628 -629 0
-619 -628 -629 0
-814 823 824 0
814 -823 824 0
814 823 -824 0
-814 -823 -824 0
-222 232 240 0
222 -232 240 0
222 232 -240 0
-222 -232 -240 0
-417 427 435 0
417 -427 435 0
417 427 -435 0
-417 -427 -435 0
-612 622 630 0
612 -622 630 0
612 622 -630 0
-612 -622 -630 0
-807 817 825 0
807 -817 825 0
807 817 -825 0
-807 -817 -825 0
-230 233 235 0
230 -233 235 0
230 233 -235 0
-230 -233 -235 0
-425 428 430 0
425 -428 430 0
425 428 -430 0
-425 -428 -430 0
-620 623 625 0
620 -623 625 0
620 623 -625 0
-620 -623 -625 0
-815 818 820 0
815 -818 820 0
815 818 -820 0
-815 -818 -820 0
-234 238 241 0
234 -238 241 0
234 238 -241 0
-234 -238 -241 0
-429 433 436 0
429 -433 436 0
429 433 -436 0
-429 -433 -436 0
-624 628 631 0
624 -628 631 0
624 628 -631 0
-624 -628 -631 0
-819 823 826 0
819 -823 826 0
819 823 -826 0
-819 -823 -826 0
-236 239 240 0
236 -239 240 0
236 239 -240 0
-236 -239 -240 0
-431 434 435 0
431 -434 435 0
431 434 -435 0
-431 -434 -435 0
-626 629 630 0
626 -629 630 0
626 629 -630 0
-626 -629 -630 0
-821 824 825 0
821 -824 825 0
821 824 -825 0
-821 -824 -825 0
-242 243 244 0
242 -243 244 0
242 243 -244 0
-242 -243 -244 0
-437 438 439 0
437 -438 439 0
437 438 -439 0
-437 -438 -439 0
-632 633 634 0
632 -633 634 0
632 633 -634 0
-632 -633 -634 0
-827 828 829 0
827 -828 829 0
827 828 -829 0
-827 -828 -829 0
-245 246 247 0
245 -246 247 0
245 246 -247 0
-245 -246 -247 0
-440 441 442 0
440 -441 442 0
440 441 -442 0
-440 -441 -442 0
-635 636 637 0
635 -636 637 0
635 636 -637 0
-635 -636 -637 0
-830 831 832 0
830 -831 832 0
830 831 -832 0
-830 -831 -832 0
-248 249 250 0
248 -249 250 0
248 249 -250 0
-248 -249 -250 0
-443 444 445 0
443 -444 445 0
443 444 -445 0
-443 -444 -445 0
-638 639 640 0
638 -639 640 0
638 639 -640 0
-638 -639 -640 0
-833 834 835 0
833 -834 835 0
833 834 -835 0
-833 -834 -835 0
-242 251 252 0
242 -251 252 0
242 251 -252 0
-242 -251 -252 0
-437 446 447 0
437 -446 447 0
437 446 -447 0
-437 -446 -447 0
-632 641 642 0
632 -641 642 0
632 641 -642 0
-632 -641 -642 0
-827 836 837 0
827 -836 837 0
827 836 -837 0
-827 -836 -837 0
-227 245 253 0
227 -245 253 0
227 245 -253 0
-227 -245 -253 0
-422 440 448 0
422 -440 448 0
422 440 -448 0
-422 -440 -448 0
-617 635 643 0
617 -635 643 0
617 635 -643 0
-617 -635 -643 0
-812 830 838 0
812 -830 838 0
812 830 -838 0
-812 -830 -838 0
-243 246 248 0
243 -246 248 0
243 246 -248 0
-243 -246 -248 0
-438 441 443 0
438 -441 443 0
438 441 -443 0
-438 -441 -443 0
-633 636 638 0
633 -636 638 0
633 636 -638 0
-633 -636 -638 0
-828 831 833 0
828 -831 833 0
828 831 -833 0
-828 -831 -833 0
-247 251 254 0
247 -251 254 0
247 251 -254 0
-247 -251 -254 0
-442 446 449 0
442 -446 449 0
442 446 -449 0
-442 -446 -449 0
-637 641 644 0
637 -641 644 0
637 641 -644 0
-637 -641 -644 0
-832 836 839 0
832 -836 839 0
832 836 -839 0
-832 -836 -839 0
-249 252 253 0
249 -252 253 0
249 252 -253 0
-249 -252 -253 0
-444 447 448 0
444 -447 448 0
444 447 -448 0
-444 -447 -448 0
-639 642 643 0
639 -642 643 0
639 642 -643 0
-639 -642 -643 0
-834 837 838 0
834 -837 838 0
834 837 -838 0
-834 -837 -838 0
-196 255 256 0
196 -255 256 0
196 255 -256 0
-196 -255 -256 0
-391 450 451 0
391 -450 451 0
391 450 -451 0
-391 -450 -451 0
-586 645 646 0
586 -645 646 0
586 645 -646 0
-586 -645 -646 0
-781 840 841 0
781 -840 841 0
781 840 -841 0
-781 -840 -841 0
-257 258 259 0
257 -258 259 0
257 258 -259 0
-257 -258 -259 0
-452 453 454 0
452 -453 454 0
452 453 -454 0
-452 -453 -454 0
-647 648 649 0
647 -648 649 0
647 648 -649 0
-647 -648 -649 0
-842 843 844 0
842 -843 844 0
842 843 -844 0
-842 -843 -844 0
-260 261 262 0
260 -261 262 0
260 261 -262 0
-260 -261 -262 0
-455 456 457 0
455 -456 457 0
455 456 -457 0
-455 -456 -457 0
-650 651 652 0
650 -651 652 0
650 651 -652 0
-650 -651 -652 0
-845 846 847 0
845 -846 847 0
845 846 -847 0
-845 -846 -847 0
-255 263 264 0
255 -263 264 0
255 263 -264 0
-255 -263 -264 0
-450 458 459 0
450 -458 459 0
450 458 -459 0
-450 -458 -459 0
-645 653 654 0
645 -653 654 0
645 653 -654 0
-645 -653 -654 0
-840 848 849 0
840 -848 849 0
840 848 -849 0
-840 -848 -849 0
-228 257 265 0
228 -257 265 0
228 257 -265 0
-228 -257 -265 0
-423 452 460 0
423 -452 460 0
423 452 -460 0
-423 -452 -460 0
-618 647 655 0
618 -647 655 0
618 647 -655 0
-618 -647 -655 0
-813 842 850 0
813 -842 850 0
813 842 -850 0
-813 -842 -850 0
-256 258 260 0
256 -258 260 0
256 258 -260 0
-256 -258 -260 0
-451 453 455 0
451 -453 455 0
451 453 -455 0
-451 -453 -455 0
-646 648 650 0
646 -648 650 0
646 648 -650 0
-646 -648 -650 0
-841 843 845 0
841 -843 845 0
841 843 -845 0
-841 -843 -845 0
-259 263 266 0
259 -263 266 0
259 263 -266 0
-259 -263 -266 0
-454 458 461 0
454 -458 461 0
454 458 -461 0
-454 -458 -461 0
-649 653 656 0
649 -653 656 0
649 653 -656 0
-649 -653 -656 0
-844 848 851 0
844 -848 851 0
844 848 -851 0
-844 -848 -851 0
-261 264 265 0
261 -264 265 0
261 264 -265 0
-261 -264 -265 0
-456 459 460 0
456 -459 460 0
456 459 -460 0
-456 -459 -460 0
-651 654 655 0
651 -654 655 0
651 654 -655 0
-651 -654 -655 0
-846 849 850 0
846 -849 850 0
846 849 -850 0
-846 -849 -850 0
-197 267 268 0
197 -267 268 0
197 267 -268 0
-197 -267 -268 0
-392 462 463 0
392 -462 463 0
392 462 -463 0
-392 -462 -463 0
-587 657 658 0
587 -657 658 0
587 657 -658 0
-587 -657 -658 0
-782 852 853 0
782 -852 853 0
782 852 -853 0
-782 -852 -853 0
-269 270 271 0
269 -270 271 0
269 270 -271 0
-269 -270 -271 0
-464 465 466 0
464 -465 466 0
464 465 -466 0
-464 -465 -466 0
-659 660 661 0
659 -660 661 0
659 660 -661 0
-659 -660 -661 0
-854 855 856 0
854 -855 856 0
854 855 -856 0
-854 -855 -856 0
-272 273 274 0
272 -273 274 0
272 273 -274 0
-272 -273 -274 0
-467 468 469 0
467 -468 469 0
467 468 -469 0
-467 -468 -469 0
-662 663 664 0
662 -663 664 0
662 663 -664 0
-662 -663 -664 0
-857 858 859 0
857 -858 859 0
857 858 -859 0
-857 -858 -859 0
-267 275 276 0
267 -275 276 0
267 275 -276 0
-267 -275 -276 0
-462 470 471 0
462 -470 471 0
462 470 -471 0
-462 -470 -471 0
-657 665 666 0
657 -665 666 0
657 665 -666 0
-657 -665 -666 0
-852 860 861 0
852 -860 861 0
852 860 -861 0
-852 -860 -861 0
-231 269 277 0
231 -269 277 0
231 269 -277 0
-231 -269 -277 0
-426 464 472 0
426 -464 472 0
426 464 -472 0
-426 -464 -472 0
-621 659 667 0
621 -659 667 0
621 659 -667 0
-621 -659 -667 0
-816 854 862 0
816 -854 862 0
816 854 -862 0
-816 -854 -862 0
-268 270 272 0
268 -270 272 0
268 270 -272 0
-268 -270 -272 0
-463 465 467 0
463 -465 467 0
463 465 -467 0
-463 -465 -467 0
-658 660 662 0
658 -660 662 0
658 660 -662 0
-658 -660 -662 0
-853 855 857 0
853 -855 857 0
853 855 -857 0
-853 -855 -857 0
-271 275 278 0
271 -275 278 0
271 275 -278 0
-271 -275 -278 0
-466 470 473 0
466 -470 473 0
466 470 -473 0
-466 -470 -473 0
-661 665 668 0
661 -665 668 0
661 665 -668 0
-661 -665 -668 0
-856 860 863 0
856 -860 863 0
856 860 -863 0
-856 -860 -863 0
-273 276 277 0
273 -276 277 0
273 276 -277 0
-273 -276 -277 0
-468 471 472 0
468 -471 472 0
468 471 -472 0
-468 -471 -472 0
-663 666 667 0
663 -666 667 0
663 666 -667 0
-663 -666 -667 0
-858 861 862 0
858 -861 862 0
858 861 -862 0
-858 -861 -862 0
-198 279 280 0
198 -279 280 0
198 279 -280 0
-198 -279 -280 0
-393 474 475 0
393 -474 475 0
393 474 -475 0
-393 -474 -475 0
-588 669 670 0
588 -669 670 0
588 669 -670 0
-588 -669 -670 0
-783 864 865 0
783 -864 865 0
783 864 -865 0
-783 -864 -865 0
-281 282 283 0
281 -282 283 0
281 282 -283 0
-281 -282 -283 0
-476 477 478 0
476 -477 478 0
476 477 -478 0
-476 -477 -478 0
-671 672 673 0
671 -672 673 0
671 672 -673 0
-671 -672 -673 0
-866 867 868 0
866 -867 868 0
866 867 -868 0
-866 -867 -868 0
-284 285 286 0
284 -285 286 0
284 285 -286 0
-284 -285 -286 0
-479 480 481 0
479 -480 481 0
479 480 -481 0
-479 -480 -481 0
-674 675 676 0
674 -675 676 0
674 675 -676 0
-674 -675 -676 0
-869 870 871 0
869 -870 871 0
869 870 -871 0
-869 -870 -871 0
-279 287 288 0
279 -287 288 0
279 287 -288 0
-279 -287 -288 0
-474 482 483 0
474 -482 483 0
474 482 -483 0
-474 -482 -483 0
-669 677 678 0
669 -677 678 0
669 677 -678 0
-669 -677 -678 0
-864 872 873 0
864 -872 873 0
864 872 -873 0
-864 -872 -873 0
-244 281 289 0
244 -281 289 0
244 281 -289 0
-244 -281 -289 0
-439 476 484 0
439 -476 484 0
439 476 -484 0
-439 -476 -484 0
-634 671 679 0
634 -671 679 0
634 671 -679 0
-634 -671 -679 0
-829 866 874 0
829 -866 874 0
829 866 -874 0
-829 -866 -874 0
-280 282 284 0
280 -282 284 0
280 282 -284 0
-280 -282 -284 0
-475 477 479 0
475 -477 479 0
475 477 -479 0
-475 -477 -479 0
-670 672 674 0
670 -672 674 0
670 672 -674 0
-670 -672 -674 0
-865 867 869 0
865 -867 869 0
865 867 -869 0
-865 -867 -869 0
-283 287 290 0
283 -287 290 0
283 287 -290 0
-283 -287 -290 0
-478 482 485 0
478 -482 485 0
478 482 -485 0
-478 -482 -485 0
-673 677 680 0
673 -677 680 0
673 677 -680 0
-673 -677 -680 0
-868 872 875 0
868 -872 875 0
868 872 -875 0
-868 -872 -875 0
-285 288 289 0
285 -288 289 0
285 288 -289 0
-285 -288 -289 0
-480 483 484 0
480 -483 484 0
480 483 -484 0
-480 -483 -484 0
-675 678 679 0
675 -678 679 0
675 678 -679 0
-675 -678 -679 0
-870 873 874 0
870 -873 874 0
870 873 -874 0
-870 -873 -874 0
-237 241 291 0
237 -241 291 0
237 241 -291 0
-237 -241 -291 0
-432 436 486 0
432 -436 486 0
432 436 -486 0
-432 -436 -486 0
-627 631 681 0
627 -631 681 0
627 631 -681 0
-627 -631 -681 0
-822 826 876 0
822 -826 876 0
822 826 -876 0
-822 -826 -876 0
-250 254 292 0
250 -254 292 0
250 254 -292 0
-250 -254 -292 0
-445 449 487 0
445 -449 487 0
445 449 -487 0
-445 -449 -487 0
-640 644 682 0
640 -644 682 0
640 644 -682 0
-640 -644 -682 0
-835 839 877 0
835 -839 877 0
835 839 -877 0
-835 -839 -877 0
-262 266 293 0
262 -266 293 0
262 266 -293 0
-262 -266 -293 0
-457 461 488 0
457 -461 488 0
457 461 -488 0
-457 -461 -488 0
-652 656 683 0
652 -656 683 0
652 656 -683 0
-652 -656 -683 0
-847 851 878 0
847 -851 878 0
847 851 -878 0
-847 -851 -878 0
-274 278 294 0
274 -278 294 0
274 278 -294 0
-274 -278 -294 0
-469 473 489 0
469 -473 489 0
469 473 -489 0
-469 -473 -489 0
-664 668 684 0
664 -668 684 0
664 668 -684 0
-664 -668 -684 0
-859 863 879 0
859 -863 879 0
859 863 -879 0
-859 -863 -879 0
-286 290 295 0
286 -290 295 0
286 290 -295 0
-286 -290 -295 0
-481 485 490 0
481 -485 490 0
481 485 -490 0
-481 -485 -490 0
-676 680 685 0
676 -680 685 0
676 680 -685 0
-676 -680 -685 0
-871 875 880 0
871 -875 880 0
871 875 -880 0
-871 -875 -880 0
-296 297 298 0
296 -297 298 0
296 297 -298 0
-296 -297 -298 0
-491 492 493 0
491 -492 493 0
491 492 -493 0
-491 -492 -493 0
-686 687 688 0
686 -687 688 0
686 687 -688 0
-686 -687 -688 0
-881 882 883 0
881 -882 883 0
881 882 -883 0
-881 -882 -883 0
-299 300 301 0
299 -300 301 0
299 300 -301 0
-299 -300 -301 0
-494 495 496 0
494 -495 496 0
494 495 -496 0
-494 -495 -496 0
-689 690 691 0
689 -690 691 0
689 690 -691 0
-689 -690 -691 0
-884 885 886 0
884 -885 886 0
884 885 -886 0
-884 -885 -886 0
-302 303 304 0
302 -303 304 0
302 303 -304 0
-302 -303 -304 0
-497 498 499 0
497 -498 499 0
497 498 -499 0
-497 -498 -499 0
-692 693 694 0
692 -693 694 0
692 693 -694 0
-692 -693 -694 0
-887 888 889 0
887 -888 889 0
887 888 -889 0
-887 -888 -889 0
-305 306 307 0
305 -306 307 0
305 306 -307 0
-305 -306 -307 0
-500 501 502 0
500 -501 502 0
500 501 -502 0
-500 -501 -502 0
-695 696 697 0
695 -696 697 0
695 696 -697 0
-695 -696 -697 0
-890 891 892 0
890 -891 892 0
890 891 -892 0
-890 -891 -892 0
-308 309 310 0
308 -309 310 0
308 309 -310 0
-308 -309 -310 0
-503 504 505 0
503 -504 505 0
503 504 -505 0
-503 -504 -505 0
-698 699 700 0
698 -699 700 0
698 699 -700 0
-698 -699 -700 0
-893 894 895 0
893 -894 895 0
893 894 -895 0
-893 -894 -895 0
-311 312 313 0
311 -312 313 0
311 312 -313 0
-311 -312 -313 0
-506 507 508 0
506 -507 508 0
506 507 -508 0
-506 -507 -508 0
-701 702 703 0
701 -702 703 0
701 702 -703 0
-701 -702 -703 0
-896 897 898 0
896 -897 898 0
896 897 -898 0
-896 -897 -898 0
-314 315 316 0
314 -315 316 0
314 315 -316 0
-314 -315 -316 0
-509 510 511 0
509 -510 511 0
509 510 -511 0
-509 -510 -511 0
-704 705 706 0
704 -705 706 0
704 705 -706 0
-704 -705 -706 0
-899 900 901 0
899 -900 901 0
899 900 -901 0
-899 -900 -901 0
-317 318 319 0
317 -318 319 0
317 318 -319 0
-317 -318 -319 0
-512 513 514 0
512 -513 514 0
512 513 -514 0
-512 -513 -514 0
-707 708 709 0
707 -708 709 0
707 708 -709 0
-707 -708 -709 0
-902 903 904 0
902 -903 904 0
902 903 -904 0
-902 -903 -904 0
-320 321 322 0
320 -321 322 0
320 321 -322 0
-320 -321 -322 0
-515 516 517 0
515 -516 517 0
515 516 -517 0
-515 -516 -517 0
-710 711 712 0
710 -711 712 0
710 711 -712 0
-710 -711 -712 0
-905 906 907 0
905 -906 907 0
905 906 -907 0
-905 -906 -907 0
-299 323 324 0
299 -323 324 0
299 323 -324 0
-299 -323 -324 0
-494 518 519 0
494 -518 519 0
494 518 -519 0
-494 -518 -519 0
-689 713 714 0
689 -713 714 0
689 713 -714 0
-689 -713 -714 0
-884 908 909 0
884 -908 909 0
884 908 -909 0
-884 -908 -909 0
-302 325 326 0
302 -325 326 0
302 325 -326 0
-302 -325 -326 0
-497 520 521 0
497 -520 521 0
497 520 -521 0
-497 -520 -521 0
-692 715 716 0
692 -715 716 0
692 715 -716 0
-692 -715 -716 0
-887 910 911 0
887 -910 911 0
887 910 -911 0
-887 -910 -911 0
-305 308 327 0
305 -308 327 0
305 308 -327 0
-305 -308 -327 0
-500 503 522 0
500 -503 522 0
500 503 -522 0
-500 -503 -522 0
-695 698 717 0
695 -698 717 0
695 698 -717 0
-695 -698 -717 0
-890 893 912 0
890 -893 912 0
890 893 -912 0
-890 -893 -912 0
-306 311 328 0
306 -311 328 0
306 311 -328 0
-306 -311 -328 0
-501 506 523 0
501 -506 523 0
501 506 -523 0
-501 -506 -523 0
-696 701 718 0
696 -701 718 0
696 701 -718 0
-696 -701 -718 0
-891 896 913 0
891 -896 913 0
891 896 -913 0
-891 -896 -913 0
-307 309 320 0
307 -309 320 0
307 309 -320 0
-307 -309 -320 0
-502 504 515 0
502 -504 515 0
502 504 -515 0
-502 -504 -515 0
-697 699 710 0
697 -699 710 0
697 699 -710 0
-697 -699 -710 0
-892 894 905 0
892 -894 905 0
892 894 -905 0
-892 -894 -905 0
-300 314 321 0
300 -314 321 0
300 314 -321 0
-300 -314 -321 0
-495 509 516 0
495 -509 516 0
495 509 -516 0
-495 -509 -516 0
-690 704 711 0
690 -704 711 0
690 704 -711 0
-690 -704 -711 0
-885 899 906 0
885 -899 906 0
885 899 -906 0
-885 -899 -906 0
-301 312 315 0
301 -312 315 0
301 312 -315 0
-301 -312 -315 0
-496 507 510 0
496 -507 510 0
496 507 -510 0
-496 -507 -510 0
-691 702 705 0
691 -702 705 0
691 702 -705 0
-691 -702 -705 0
-886 897 900 0
886 -897 900 0
886 897 -900 0
-886 -897 -900 0
-303 313 316 0
303 -313 316 0
303 313 -316 0
-303 -313 -316 0
-498 508 511 0
498 -508 511 0
498 508 -511 0
-498 -508 -511 0
-693 703 706 0
693 -703 706 0
693 703 -706 0
-693 -703 -706 0
-888 898 901 0
888 -898 901 0
888 898 -901 0
-888 -898 -901 0
-310 317 325 0
310 -317 325 0
310 317 -325 0
-310 -317 -325 0
-505 512 520 0
505 -512 520 0
505 512 -520 0
-505 -512 -520 0
-700 707 715 0
700 -707 715 0
700 707 -715 0
-700 -707 -715 0
-895 902 910 0
895 -902 910 0
895 902 -910 0
-895 -902 -910 0
-318 323 326 0
318 -323 326 0
318 323 -326 0
-318 -323 -326 0
-513 518 521 0
513 -518 521 0
513 518 -521 0
-513 -518 -521 0
-708 713 716 0
708 -713 716 0
708 713 -716 0
-708 -713 -716 0
-903 908 911 0
903 -908 911 0
903 908 -911 0
-903 -908 -911 0
-304 319 324 0
304 -319 324 0
304 319 -324 0
-304 -319 -324 0
-499 514 519 0
499 -514 519 0
499 514 -519 0
-499 -514 -519 0
-694 709 714 0
694 -709 714 0
694 709 -714 0
-694 -709 -714 0
-889 904 909 0
889 -904 909 0
889 904 -909 0
-889 -904 -909 0
-329 330 331 0
329 -330 331 0
329 330 -331 0
-329 -330 -331 0
-524 525 526 0
524 -525 526 0
524 525 -526 0
-524 -525 -526 0
-719 720 721 0
719 -720 721 0
719 720 -721 0
-719 -720 -721 0
-914 915 916 0
914 -915 916 0
914 915 -916 0
-914 -915 -916 0
-332 333 334 0
332 -333 334 0
332 333 -334 0
-332 -333 -334 0
-527 528 529 0
527 -528 529 0
527 528 -529 0
-527 -528 -529 0
-722 723 724 0
722 -723 724 0
722 723 -724 0
-722 -723 -724 0
-917 918 919 0
917 -918 919 0
917 918 -919 0
-917 -918 -919 0
-335 336 337 0
335 -336 337 0
335 336 -337 0
-335 -336 -337 0
-530 531 532 0
530 -531 532 0
530 531 -532 0
-530 -531 -532 0
-725 726 727 0
725 -726 727 0
725 726 -727 0
-725 -726 -727 0
-920 921 922 0
920 -921 922 0
920 921 -922 0
-920 -921 -922 0
-329 338 339 0
329 -338 339 0
329 338 -339 0
-329 -338 -339 0
-524 533 534 0
524 -533 534 0
524 533 -534 0
-524 -533 -534 0
-719 728 729 0
719 -728 729 0
719 728 -729 0
-719 -728 -729 0
-914 923 924 0
914 -923 924 0
914 923 -924 0
-914 -923 -924 0
-322 332 340 0
322 -332 340 0
322 332 -340 0
-322 -332 -340 0
-517 527 535 0
517 -527 535 0
517 527 -535 0
-517 -527 -535 0
-712 722 730 0
712 -722 730 0
712 722 -730 0
-712 -722 -730 0
-907 917 925 0
907 -917 925 0
907 917 -925 0
-907 -917 -925 0
-330 333 335 0
330 -333 335 0
330 333 -335 0
-330 -333 -335 0
-525 528 530 0
525 -528 530 0
525 528 -530 0
-525 -528 -530 0
-720 723 725 0
720 -723 725 0
720 723 -725 0
-720 -723 -725 0
-915 918 920 0
915 -918 920 0
915 918 -920 0
-915 -918 -920 0
-334 338 341 0
334 -338 341 0
334 338 -341 0
-334 -338 -341 0
-529 533 536 0
529 -533 536 0
529 533 -536 0
-529 -533 -536 0
-724 728 731 0
724 -728 731 0
724 728 -731 0
-724 -728 -731 0
-919 923 926 0
919 -923 926 0
919 923 -926 0
-919 -923 -926 0
-336 339 340 0
336 -339 340 0
336 339 -340 0
-336 -339 -340 0
-531 534 535 0
531 -534 535 0
531 534 -535 0
-531 -534 -535 0
-726 729 730 0
726 -729 730 0
726 729 -730 0
-726 -729 -730 0
-921 924 925 0
921 -924 925 0
921 924 -925 0
-921 -924 -925 0
-342 343 344 0
342 -343 344 0
342 343 -344 0
-342 -343 -344 0
-537 538 539 0
537 -538 539 0
537 538 -539 0
-537 -538 -539 0
-732 733 734 0
732 -733 734 0
732 733 -734 0
-732 -733 -734 0
-927 928 929 0
927 -928 929 0
927 928 -929 0
-927 -928 -929 0
-345 346 347 0
345 -346 347 0
345 346 -347 0
-345 -346 -347 0
-540 541 542 0
540 -541 542 0
540 541 -542 0
-540 -541 -542 0
-735 736 737 0
735 -736 737 0
735 736 -737 0
-735 -736 -737 0
-930 931 932 0
930 -931 932 0
930 931 -932 0
-930 -931 -932 0
-348 349 350 0
348 -349 350 0
348 349 -350 0
-348 -349 -350 0
-543 544 545 0
543 -544 545 0
543 544 -545 0
-543 -544 -545 0
-738 739 740 0
738 -739 740 0
738 739 -740 0
-738 -739 -740 0
-933 934 935 0
933 -934 935 0
933 934 -935 0
-933 -934 -935 0
-342 351 352 0
342 -351 352 0
342 351 -352 0
-342 -351 -352 0
-537 546 547 0
537 -546 547 0
537 546 -547 0
-537 -546 -547 0
-732 741 742 0
732 -741 742 0
732 741 -742 0
-732 -741 -742 0
-927 936 937 0
927 -936 937 0
927 936 -937 0
-927 -936 -937 0
-327 345 353 0
327 -345 353 0
327 345 -353 0
-327 -345 -353 0
-522 540 548 0
522 -540 548 0
522 540 -548 0
-522 -540 -548 0
-717 735 743 0
717 -735 743 0
717 735 -743 0
-717 -735 -743 0
-912 930 938 0
912 -930 938 0
912 930 -938 0
-912 -930 -938 0
-343 346 348 0
343 -346 348 0
343 346 -348 0
-343 -346 -348 0
-538 541 543 0
538 -541 543 0
538 541 -543 0
-538 -541 -543 0
-733 736 738 0
733 -736 738 0
733 736 -738 0
-733 -736 -738 0
-928 931 933 0
928 -931 933 0
928 931 -933 0
-928 -931 -933 0
-347 351 354 0
347 -351 354 0
347 351 -354 0
-347 -351 -354 0
-542 546 549 0
542 -546 549 0
542 546 -549 0
-542 -546 -549 0
-737 741 744 0
737 -741 744 0
737 741 -744 0
-737 -741 -744 0
-932 936 939 0
932 -936 939 0
932 936 -939 0
-932 -936 -939 0
-349 352 353 0
349 -352 353 0
349 352 -353 0
-349 -352 -353 0
-544 547 548 0
544 -547 548 0
544 547 -548 0
-544 -547 -548 0
-739 742 743 0
739 -742 743 0
739 742 -743 0
-739 -742 -743 0
-934 937 938 0
934 -937 938 0
934 937 -938 0
-934 -937 -938 0
-296 355 356 0
296 -355 356 0
296 355 -356 0
-296 -355 -356 0
-491 550 551 0
491 -550 551 0
491 550 -551 0
-491 -550 -551 0
-686 745 746 0
686 -745 746 0
686 745 -746 0
-686 -745 -746 0
-881 940 941 0
881 -940 941 0
881 940 -941 0
-881 -940 -941 0
-357 358 359 0
357 -358 359 0
357 358 -359 0
-357 -358 -359 0
-552 553 554 0
552 -553 554 0
552 553 -554 0
-552 -553 -554 0
-747 748 749 0
747 -748 749 0
747 748 -749 0
-747 -748 -749 0
-942 943 944 0
942 -943 944 0
942 943 -944 0
-942 -943 -944 0
-360 361 362 0
360 -361 362 0
360 361 -362 0
-360 -361 -362 0
-555 556 557 0
555 -556 557 0
555 556 -557 0
-555 -556 -557 0
-750 751 752 0
750 -751 752 0
750 751 -752 0
-750 -751 -752 0
-945 946 947 0
945 -946 947 0
945 946 -947 0
-945 -946 -947 0
-355 363 364 0
355 -363 364 0
355 363 -364 0
-355 -363 -364 0
-550 558 559 0
550 -558 559 0
550 558 -559 0
-550 -558 -559 0
-745 753 754 0
745 -753 754 0
745 753 -754 0
-745 -753 -754 0
-940 948 949 0
940 -948 949 0
940 948 -949 0
-940 -948 -949 0
-328 357 365 0
328 -357 365 0
328 357 -365 0
-328 -357 -365 0
-523 552 560 0
523 -552 560 0
523 552 -560 0
-523 -552 -560 0
-718 747 755 0
718 -747 755 0
718 747 -755 0
-718 -747 -755 0
-913 942 950 0
913 -942 950 0
913 942 -950 0
-913 -942 -950 0
-356 358 360 0
356 -358 360 0
356 358 -360 0
-356 -358 -360 0
-551 553 555 0
551 -553 555 0
551 553 -555 0
-551 -553 -555 0
-746 748 750 0
746 -748 750 0
746 748 -750 0
-746 -748 -750 0
-941 943 945 0
941 -943 945 0
941 943 -945 0
-941 -943 -945 0
-359 363 366 0
359 -363 366 0
359 363 -366 0
-359 -363 -366 0
-554 558 561 0
554 -558 561 0
554 558 -561 0
-554 -558 -561 0
-749 753 756 0
749 -753 756 0
749 753 -756 0
-749 -753 -756 0
-944 948 951 0
944 -948 951 0
944 948 -951 0
-944 -948 -951 0
-361 364 365 0
361 -364 365 0
361 364 -365 0
-361 -364 -365 0
-556 559 560 0
556 -559 560 0
556 559 -560 0
-556 -559 -560 0
-751 754 755 0
751 -754 755 0
751 754 -755 0
-751 -754 -755 0
-946 949 950 0
946 -949 950 0
946 949 -950 0
-946 -949 -950 0
-297 367 368 0
297 -367 368 0
297 367 -368 0
-297 -367 -368 0
-492 562 563 0
492 -562 563 0
492 562 -563 0
-492 -562 -563 0
-687 757 758 0
687 -757 758 0
687 757 -758 0
-687 -757 -758 0
-882 952 953 0
882 -952 953 0
882 952 -953 0
-882 -952 -953 0
-369 370 371 0
369 -370 371 0
369 370 -371 0
-369 -370 -371 0
-564 565 566 0
564 -565 566 0
564 565 -566 0
-564 -565 -566 0
-759 760 761 0
759 -760 761 0
759 760 -761 0
-759 -760 -761 0
-954 955 956 0
954 -955 956 0
954 955 -956 0
-954 -955 -956 0
-372 373 374 0
372 -373 374 0
372 373 -374 0
-372 -373 -374 0
-567 568 569 0
567 -568 569 0
567 568 -569 0
-567 -568 -569 0
-762 763 764 0
762 -763 764 0
762 763 -764 0
-762 -763 -764 0
-957 958 959 0
957 -958 959 0
957 958 -959 0
-957 -958 -959 0
-367 375 376 0
367 -375 376 0
367 375 -376 0
-367 -375 -376 0
-562 570 571 0
562 -570 571 0
562 570 -571 0
-562 -570 -571 0
-757 765 766 0
757 -765 766 0
757 765 -766 0
-757 -765 -766 0
-952 960 961 0
952 -960 961 0
952 960 -961 0
-952 -960 -961 0
-331 369 377 0
331 -369 377 0
331 369 -377 0
-331 -369 -377 0
-526 564 572 0
526 -564 572 0
526 564 -572 0
-526 -564 -572 0
-721 759 767 0
721 -759 767 0
721 759 -767 0
-721 -759 -767 0
-916 954 962 0
916 -954 962 0
916 954 -962 0
-916 -954 -962 0
-368 370 372 0
368 -370 372 0
368 370 -372 0
-368 -370 -372 0
-563 565 567 0
563 -565 567 0
563 565 -567 0
-563 -565 -567 0
-758 760 762 0
758 -760 762 0
758 760 -762 0
-758 -760 -762 0
-953 955 957 0
953 -955 957 0
953 955 -957 0
-953 -955 -957 0
-371 375 378 0
371 -375 378 0
371 375 -378 0
-371 -375 -378 0
-566 570 573 0
566 -570 573 0
566 570 -573 0
-566 -570 -573 0
-761 765 768 0
761 -765 768 0
761 765 -768 0
-761 -765 -768 0
-956 960 963 0
956 -960 963 0
956 960 -963 0
-956 -960 -963 0
-373 376 377 0
373 -376 377 0
373 376 -377 0
-373 -376 -377 0
-568 571 572 0
568 -571 572 0
568 571 -572 0
-568 -571 -572 0
-763 766 767 0
763 -766 767 0
763 766 -767 0
-763 -766 -767 0
-958 961 962 0
958 -961 962 0
958 961 -962 0
-958 -961 -962 0
-298 379 380 0
298 -379 380 0
298 379 -380 0
-298 -379 -380 0
-493 574 575 0
493 -574 575 0
493 574 -575 0
-493 -574 -575 0
-688 769 770 0
688 -769 770 0
688 769 -770 0
-688 -769 -770 0
-883 964 965 0
883 -964 965 0
883 964 -965 0
-883 -964 -965 0
-381 382 383 0
381 -382 383 0
381 382 -383 0
-381 -382 -383 0
-576 577 578 0
576 -577 578 0
576 577 -578 0
-576 -577 -578 0
-771 772 773 0
771 -772 773 0
771 772 -773 0
-771 -772 -773 0
-966 967 968 0
966 -967 968 0
966 967 -968 0
-966 -967 -968 0
-384 385 386 0
384 -385 386 0
384 385 -386 0
-384 -385 -386 0
-579 580 581 0
579 -580 581 0
579 580 -581 0
-579 -580 -581 0
-774 775 776 0
774 -775 776 0
774 775 -776 0
-774 -775 -776 0
-969 970 971 0
969 -970 971 0
969 970 -971 0
-969 -970 -971 0
-379 387 388 0
379 -387 388 0
379 387 -388 0
-379 -387 -388 0
-574 582 583 0
574 -582 583 0
574 582 -583 0
-574 -582 -583 0
-769 777 778 0
769 -777 778 0
769 777 -778 0
-769 -777 -778 0
-964 972 973 0
964 -972 973 0
964 972 -973 0
-964 -972 -973 0
-344 381 389 0
344 -381 389 0
344 381 -389 0
-344 -381 -389 0
-539 576 584 0
539 -576 584 0
539 576 -584 0
-539 -576 -584 0
-734 771 779 0
734 -771 779 0
734 771 -779 0
-734 -771 -779 0
-929 966 974 0
929 -966 974 0
929 966 -974 0
-929 -966 -974 0
-380 382 384 0
380 -382 384 0
380 382 -384 0
-380 -382 -384 0
-575 577 579 0
575 -577 579 0
575 577 -579 0
-575 -577 -579 0
-770 772 774 0
770 -772 774 0
770 772 -774 0
-770 -772 -774 0
-965 967 969 0
965 -967 969 0
965 967 -969 0
-965 -967 -969 0
-383 387 390 0
383 -387 390 0
383 387 -390 0
-383 -387 -390 0
-578 582 585 0
578 -582 585 0
578 582 -585 0
-578 -582 -585 0
-773 777 780 0
773 -777 780 0
773 777 -780 0
-773 -777 -780 0
-968 972 975 0
968 -972 975 0
968 972 -975 0
-968 -972 -975 0
-385 388 389 0
385 -388 389 0
385 388 -389 0
-385 -388 -389 0
-580 583 584 0
580 -583 584 0
580 583 -584 0
-580 -583 -584 0
-775 778 779 0
775 -778 779 0
775 778 -779 0
-775 -778 -779 0
-970 973 974 0
970 -973 974 0
970 973 -974 0
-970 -973 -974 0
-291 337 341 0
291 -337 341 0
291 337 -341 0
-291 -337 -341 0
-486 532 536 0
486 -532 536 0
486 532 -536 0
-486 -532 -536 0
-681 727 731 0
681 -727 731 0
681 727 -731 0
-681 -727 -731 0
-876 922 926 0
876 -922 926 0
876 922 -926 0
-876 -922 -926 0
-292 350 354 0
292 -350 354 0
292 350 -354 0
-292 -350 -354 0
-487 545 549 0
487 -545 549 0
487 545 -549 0
-487 -545 -549 0
-682 740 744 0
682 -740 744 0
682 740 -744 0
-682 -740 -744 0
-877 935 939 0
877 -935 939 0
877 935 -939 0
-877 -935 -939 0
-293 362 366 0
293 -362 366 0
293 362 -366 0
-293 -362 -366 0
-488 557 561 0
488 -557 561 0
488 557 -561 0
-488 -557 -561 0
-683 752 756 0
683 -752 756 0
683 752 -756 0
-683 -752 -756 0
-878 947 951 0
878 -947 951 0
878 947 -951 0
-878 -947 -951 0
-294 374 378 0
294 -374 378 0
294 374 -378 0
-294 -374 -378 0
-489 569 573 0
489 -569 573 0
489 569 -573 0
-489 -569 -573 0
-684 764 768 0
684 -764 768 0
684 764 -768 0
-684 -764 -768 0
-879 959 963 0
879 -959 963 0
879 959 -963 0
-879 -959 -963 0
-295 386 390 0
295 -386 390 0
295 386 -390 0
-295 -386 -390 0
-490 581 585 0
490 -581 585 0
490 581 -585 0
-490 -581 -585 0
-685 776 780 0
685 -776 780 0
685 776 -780 0
-685 -776 -780 0
-880 971 975 0
880 -971 975 0
880 971 -975 0
-880 -971 -975 0
-1 976 0
-2 977 0
-976 977 0
-2 -976 978 0
-3 979 0
-977 979 0
-978 980 0
-3 -977 980 0
-3 -978 981 0
-4 982 0
-979 982 0
-980 983 0
-981 984 0
-4 -979 983 0
-4 -980 984 0
-4 -981 985 0
-5 986 0
-982 986 0
-983 987 0
-984 988 0
-985 989 0
-5 -982 987 0
-5 -983 988 0
-5 -984 989 0
-5 -985 990 0
-6 991 0
-986 991 0
-987 992 0
-988 993 0
-989 994 0
-990 995 0
-6 -986 992 0
-6 -987 993 0
-6 -988 994 0
-6 -989 995 0
-6 -990 0
-7 996 0
-991 996 0
-992 997 0
-993 998 0
-994 999 0
-995 1000 0
-7 -991 997 0
-7 -992 998 0
-7 -993 999 0
-7 -994 1000 0
-7 -995 0
-8 1001 0
-996 1001 0
-997 1002 0
-998 1003 0
-999 1004 0
-1000 1005 0
-8 -996 1002 0
-8 -997 1003 0
-8 -998 1004 0
-8 -999 1005 0
-8 -1000 0
-9 1006 0
-1001 1006 0
-1002 1007 0
-1003 1008 0
-1004 1009 0
-1005 1010 0
-9 -1001 1007 0
-9 -1002 1008 0
-9 -1003 1009 0
-9 -1004 1010 0
-9 -1005 0
-10 1011 0
-1006 1011 0
-1007 1012 0
-1008 1013 0
-1009 1014 0
-1010 1015 0
-10 -1006 1012 0
-10 -1007 1013 0
-10 -1008 1014 0
-10 -1009 1015 0
-10 -1010 0
-11 1016 0
-1011 1016 0
-1012 1017 0
-1013 1018 0
-1014 1019 0
-1015 1020 0
-11 -1011 1017 0
-11 -1012 1018 0
-11 -1013 1019 0
-11 -1014 1020 0
-11 -1015 0
-12 1021 0
-1016 1021 0
-1017 1022 0
-1018 1023 0
-1019 1024 0
-1020 1025 0
-12 -1016 1022 0
-12 -1017 1023 0
-12 -1018 1024 0
-12 -1019 1025 0
-12 -1020 0
-13 1026 0
-1021 1026 0
-1022 1027 0
-1023 1028 0
-1024 1029 0
-1025 1030 0
-13 -1021 1027 0
-13 -1022 1028 0
-13 -1023 1029 0
-13 -1024 1030 0
-13 -1025 0
-14 1031 0
-1026 1031 0
-1027 1032 0
-1028 1033 0
-1029 1034 0
-1030 1035 0
-14 -1026 1032 0
-14 -1027 1033 0
-14 -1028 1034 0
-14 -1029 1035 0
-14 -1030 0
-15 1036 0
-1031 1036 0
-1032 1037 0
-1033 1038 0
-1034 1039 0
-1035 1040 0
-15 -1031 1037 0
-15 -1032 1038 0
-15 -1033 1039 0
-15 -1034 1040 0
-15 -1035 0
-16 1041 0
-1036 1041 0
-1037 1042 0
-1038 1043 0
-1039 1044 0
-1040 1045 0
-16 -1036 1042 0
-16 -1037 1043 0
-16 -1038 1044 0
-16 -1039 1045 0
-16 -1040 0
-17 1046 0
-1041 1046 0
-1042 1047 0
-1043 1048 0
-1044 1049 0
-1045 1050 0
-17 -1041 1047 0
-17 -1042 1048 0
-17 -1043 1049 0
-17 -1044 1050 0
-17 -1045 0
-18 1051 0
-1046 1051 0
-1047 1052 0
-1048 1053 0
-1049 1054 0
-1050 1055 0
-18 -1046 1052 0
-18 -1047 1053 0
-18 -1048 1054 0
-18 -1049 1055 0
-18 -1050 0
-19 1056 0
-1051 1056 0
-1052 1057 0
-1053 1058 0
-1054 1059 0
-1055 1060 0
-19 -1051 1057 0
-19 -1052 1058 0
-19 -1053 1059 0
-19 -1054 1060 0
-19 -1055 0
-20 1061 0
-1056 1061 0
-1057 1062 0
-1058 1063 0
-1059 1064 0
-1060 1065 0
-20 -1056 1062 0
-20 -1057 1063 0
-20 -1058 1064 0
-20 -1059 1065 0
-20 -1060 0
-21 1066 0
-1061 1066 0
-1062 1067 0
-1063 1068 0
-1064 1069 0
-1065 1070 0
-21 -1061 1067 0
-21 -1062 1068 0
-21 -1063 1069 0
-21 -1064 1070 0
-21 -1065 0
-22 1071 0
-1066 1071 0
-1067 1072 0
-1068 1073 0
-1069 1074 0
-1070 1075 0
-22 -1066 1072 0
-22 -1067 1073 0
-22 -1068 1074 0
-22 -1069 1075 0
-22 -1070 0
-23 1076 0
-1071 1076 0
-1072 1077 0
-1073 1078 0
-1074 1079 0
-1075 1080 0
-23 -1071 1077 0
-23 -1072 1078 0
-23 -1073 1079 0
-23 -1074 1080 0
-23 -1075 0
-24 1081 0
-1076 1081 0
-1077 1082 0
-1078 1083 0
-1079 1084 0
-1080 1085 0
-24 -1076 1082 0
-24 -1077 1083 0
-24 -1078 1084 0
-24 -1079 1085 0
-24 -1080 0
-25 1086 0
-1081 1086 0
-1082 1087 0
-1083 1088 0
-1084 1089 0
-1085 1090 0
-25 -1081 1087 0
-25 -1082 1088 0
-25 -1083 1089 0
-25 -1084 1090 0
-25 -1085 0
-26 1091 0
-1086 1091 0
-1087 1092 0
-1088 1093 0
-1089 1094 0
-1090 1095 0
-26 -1086 1092 0
-26 -1087 1093 0
-26 -1088 1094 0
-26 -1089 1095 0
-26 -1090 0
-27 1096 0
-1091 1096 0
-1092 1097 0
-1093 1098 0
-1094 1099 0
-1095 1100 0
-27 -1091 1097 0
-27 -1092 1098 0
-27 -1093 1099 0
-27 -1094 1100 0
-27 -1095 0
-28 1101 0
-1096 1101 0
-1097 1102 0
-1098 1103 0
-1099 1104 0
-1100 1105 0
-28 -1096 1102 0
-28 -1097 1103 0
-28 -1098 1104 0
-28 -1099 1105 0
-28 -1100 0
-29 1106 0
-1101 1106 0
-1102 1107 0
-1103 1108 0
-1104 1109 0
-1105 1110 0
-29 -1101 1107 0
-29 -1102 1108 0
-29 -1103 1109 0
-29 -1104 1110 0
-29 -1105 0
-30 1111 0
-1106 1111 0
-1107 1112 0
-1108 1113 0
-1109 1114 0
-1110 1115 0
-30 -1106 1112 0
-30 -1107 1113 0
-30 -1108 1114 0
-30 -1109 1115 0
-30 -1110 0
-31 1116 0
-1111 1116 0
-1112 1117 0
-1113 1118 0
-1114 1119 0
-1115 1120 0
-31 -1111 1117 0
-31 -1112 1118 0
-31 -1113 1119 0
-31 -1114 1120 0
-31 -1115 0
-32 1121 0
-1116 1121 0
-1117 1122 0
-1118 1123 0
-1119 1124 0
-1120 1125 0
-32 -1116 1122 0
-32 -1117 1123 0
-32 -1118 1124 0
-32 -1119 1125 0
-32 -1120 0
-33 1126 0
-1121 1126 0
-1122 1127 0
-1123 1128 0
-1124 1129 0
-1125 1130 0
-33 -1121 1127 0
-33 -1122 1128 0
-33 -1123 1129 0
-33 -1124 1130 0
-33 -1125 0
-34 1131 0
-1126 1131 0
-1127 1132 0
-1128 1133 0
-1129 1134 0
-1130 1135 0
-34 -1126 1132 0
-34 -1127 1133 0
-34 -1128 1134 0
-34 -1129 1135 0
-34 -1130 0
-35 1136 0
-1131 1136 0
-1132 1137 0
-1133 1138 0
-1134 1139 0
-1135 1140 0
-35 -1131 1137 0
-35 -1132 1138 0
-35 -1133 1139 0
-35 -1134 1140 0
-35 -1135 0
-36 1141 0
-1136 1141 0
-1137 1142 0
-1138 1143 0
-1139 1144 0
-1140 1145 0
-36 -1136 1142 0
-36 -1137 1143 0
-36 -1138 1144 0
-36 -1139 1145 0
-36 -1140 0
-37 1146 0
-1141 1146 0
-1142 1147 0
-1143 1148 0
-1144 1149 0
-1145 1150 0
-37 -1141 1147 0
-37 -1142 1148 0
-37 -1143 1149 0
-37 -1144 1150 0
-37 -1145 0
-38 1151 0
-1146 1151 0
-1147 1152 0
-1148 1153 0
-1149 1154 0
-1150 1155 0
-38 -1146 1152 0
-38 -1147 1153 0
-38 -1148 1154 0
-38 -1149 1155 0
-38 -1150 0
-39 1156 0
-1151 1156 0
-1152 1157 0
-1153 1158 0
-1154 1159 0
-1155 1160 0
-39 -1151 1157 0
-39 -1152 1158 0
-39 -1153 1159 0
-39 -1154 1160 0
-39 -1155 0
-40 1161 0
-1156 1161 0
-1157 1162 0
-1158 1163 0
-1159 1164 0
-1160 1165 0
-40 -1156 1162 0
-40 -1157 1163 0
-40 -1158 1164 0
-40 -1159 1165 0
-40 -1160 0
-41 1166 0
-1161 1166 0
-1162 1167 0
-1163 1168 0
-1164 1169 0
-1165 1170 0
-41 -1161 1167 0
-41 -1162 1168 0
-41 -1163 1169 0
-41 -1164 1170 0
-41 -1165 0
-42 1171 0
-1166 1171 0
-1167 1172 0
-1168 1173 0
-1169 1174 0
-1170 1175 0
-42 -1166 1172 0
-42 -1167 1173 0
-42 -1168 1174 0
-42 -1169 1175 0
-42 -1170 0
-43 1176 0
-1171 1176 0
-1172 1177 0
-1173 1178 0
-1174 1179 0
-1175 1180 0
-43 -1171 1177 0
-43 -1172 1178 0
-43 -1173 1179 0
-43 -1174 1180 0
-43 -1175 0
-44 1181 0
-1176 1181 0
-1177 1182 0
-1178 1183 0
-1179 1184 0
-1180 1185 0
-44 -1176 1182 0
-44 -1177 1183 0
-44 -1178 1184 0
-44 -1179 1185 0
-44 -1180 0
-45 1186 0
-1181 1186 0
-1182 1187 0
-1183 1188 0
-1184 1189 0
-1185 1190 0
-45 -1181 1187 0
-45 -1182 1188 0
-45 -1183 1189 0
-45 -1184 1190 0
-45 -1185 0
-46 1191 0
-1186 1191 0
-1187 1192 0
-1188 1193 0
-1189 1194 0
-1190 1195 0
-46 -1186 1192 0
-46 -1187 1193 0
-46 -1188 1194 0
-46 -1189 1195 0
-46 -1190 0
-47 1196 0
-1191 1196 0
-1192 1197 0
-1193 1198 0
-1194 1199 0
-1195 1200 0
-47 -1191 1197 0
-47 -1192 1198 0
-47 -1193 1199 0
-47 -1194 1200 0
-47 -1195 0
-48 1201 0
-1196 1201 0
-1197 1202 0
-1198 1203 0
-1199 1204 0
-1200 1205 0
-48 -1196 1202 0
-48 -1197 1203 0
-48 -1198 1204 0
-48 -1199 1205 0
-48 -1200 0
-49 1206 0
-1201 1206 0
-1202 1207 0
-1203 1208 0
-1204 1209 0
-1205 1210 0
-49 -1201 1207 0
-49 -1202 1208 0
-49 -1203 1209 0
-49 -1204 1210 0
-49 -1205 0
-50 1211 0
-1206 1211 0
-1207 1212 0
-1208 1213 0
-1209 1214 0
-1210 1215 0
-50 -1206 1212 0
-50 -1207 1213 0
-50 -1208 1214 0
-50 -1209 1215 0
-50 -1210 0
-51 1216 0
-1211 1216 0
-1212 1217 0
-1213 1218 0
-1214 1219 0
-1215 1220 0
-51 -1211 1217 0
-51 -1212 1218 0
-51 -1213 1219 0
-51 -1214 1220 0
-51 -1215 0
-52 1221 0
-1216 1221 0
-1217 1222 0
-1218 1223 0
-1219 1224 0
-1220 1225 0
-52 -1216 1222 0
-52 -1217 1223 0
-52 -1218 1224 0
-52 -1219 1225 0
-52 -1220 0
-53 1226 0
-1221 1226 0
-1222 1227 0
-1223 1228 0
-1224 1229 0
-1225 1230 0
-53 -1221 1227 0
-53 -1222 1228 0
-53 -1223 1229 0
-53 -1224 1230 0
-53 -1225 0
-54 1231 0
-1226 1231 0
-1227 1232 0
-1228 1233 0
-1229 1234 0
-1230 1235 0
-54 -1226 1232 0
-54 -1227 1233 0
-54 -1228 1234 0
-54 -1229 1235 0
-54 -1230 0
-55 1236 0
-1231 1236 0
-1232 1237 0
-1233 1238 0
-1234 1239 0
-1235 1240 0
-55 -1231 1237 0
-55 -1232 1238 0
-55 -1233 1239 0
-55 -1234 1240 0
-55 -1235 0
-56 1241 0
-1236 1241 0
-1237 1242 0
-1238 1243 0
-1239 1244 0
-1240 1245 0
-56 -1236 1242 0
-56 -1237 1243 0
-56 -1238 1244 0
-56 -1239 1245 0
-56 -1240 0
-57 1246 0
-1241 1246 0
-1242 1247 0
-1243 1248 0
-1244 1249 0
-1245 1250 0
-57 -1241 1247 0
-57 -1242 1248 0
-57 -1243 1249 0
-57 -1244 1250 0
-57 -1245 0
-58 1251 0
-1246 1251 0
-1247 1252 0
-1248 1253 0
-1249 1254 0
-1250 1255 0
-58 -1246 1252 0
-58 -1247 1253 0
-58 -1248 1254 0
-58 -1249 1255 0
-58 -1250 0
-59 1256 0
-1251 1256 0
-1252 1257 0
-1253 1258 0
-1254 1259 0
-1255 1260 0
-59 -1251 1257 0
-59 -1252 1258 0
-59 -1253 1259 0
-59 -1254 1260 0
-59 -1255 0
-60 1261 0
-1256 1261 0
-1257 1262 0
-1258 1263 0
-1259 1264 0
-1260 1265 0
-60 -1256 1262 0
-60 -1257 1263 0
-60 -1258 1264 0
-60 -1259 1265 0
-60 -1260 0
-61 1266 0
-1261 1266 0
-1262 1267 0
-1263 1268 0
-1264 1269 0
-1265 1270 0
-61 -1261 1267 0
-61 -1262 1268 0
-61 -1263 1269 0
-61 -1264 1270 0
-61 -1265 0
-62 1271 0
-1266 1271 0
-1267 1272 0
-1268 1273 0
-1269 1274 0
-1270 1275 0
-62 -1266 1272 0
-62 -1267 1273 0
-62 -1268 1274 0
-62 -1269 1275 0
-62 -1270 0
-63 1276 0
-1271 1276 0
-1272 1277 0
-1273 1278 0
-1274 1279 0
-1275 1280 0
-63 -1271 1277 0
-63 -1272 1278 0
-63 -1273 1279 0
-63 -1274 1280 0
-63 -1275 0
-64 1281 0
-1276 1281 0
-1277 1282 0
-1278 1283 0
-1279 1284 0
-1280 1285 0
-64 -1276 1282 0
-64 -1277 1283 0
-64 -1278 1284 0
-64 -1279 1285 0
-64 -1280 0
-65 1286 0
-1281 1286 0
-1282 1287 0
-1283 1288 0
-1284 1289 0
-1285 1290 0
-65 -1281 1287 0
-65 -1282 1288 0
-65 -1283 1289 0
-65 -1284 1290 0
-65 -1285 0
-66 1291 0
-1286 1291 0
-1287 1292 0
-1288 1293 0
-1289 1294 0
-1290 1295 0
-66 -1286 1292 0
-66 -1287 1293 0
-66 -1288 1294 0
-66 -1289 1295 0
-66 -1290 0
-67 1296 0
-1291 1296 0
-1292 1297 0
-1293 1298 0
-1294 1299 0
-1295 1300 0
-67 -1291 1297 0
-67 -1292 1298 0
-67 -1293 1299 0
-67 -1294 1300 0
-67 -1295 0
-68 1301 0
-1296 1301 0
-1297 1302 0
-1298 1303 0
-1299 1304 0
-1300 1305 0
-68 -1296 1302 0
-68 -1297 1303 0
-68 -1298 1304 0
-68 -1299 1305 0
-68 -1300 0
-69 1306 0
-1301 1306 0
-1302 1307 0
-1303 1308 0
-1304 1309 0
-1305 1310 0
-69 -1301 1307 0
-69 -1302 1308 0
-69 -1303 1309 0
-69 -1304 1310 0
-69 -1305 0
-70 1311 0
-1306 1311 0
-1307 1312 0
-1308 1313 0
-1309 1314 0
-1310 1315 0
-70 -1306 1312 0
-70 -1307 1313 0
-70 -1308 1314 0
-70 -1309 1315 0
-70 -1310 0
-71 1316 0
-1311 1316 0
-1312 1317 0
-1313 1318 0
-1314 1319 0
-1315 1320 0
-71 -1311 1317 0
-71 -1312 1318 0
-71 -1313 1319 0
-71 -1314 1320 0
-71 -1315 0
-72 1321 0
-1316 1321 0
-1317 1322 0
-1318 1323 0
-1319 1324 0
-1320 1325 0
-72 -1316 1322 0
-72 -1317 1323 0
-72 -1318 1324 0
-72 -1319 1325 0
-72 -1320 0
-73 1326 0
-1321 1326 0
-1322 1327 0
-1323 1328 0
-1324 1329 0
-1325 1330 0
-73 -1321 1327 0
-73 -1322 1328 0
-73 -1323 1329 0
-73 -1324 1330 0
-73 -1325 0
-74 1331 0
-1326 1331 0
-1327 1332 0
-1328 1333 0
-1329 1334 0
-1330 1335 0
-74 -1326 1332 0
-74 -1327 1333 0
-74 -1328 1334 0
-74 -1329 1335 0
-74 -1330 0
-75 1336 0
-1331 1336 0
-1332 1337 0
-1333 1338 0
-1334 1339 0
-1335 1340 0
-75 -1331 1337 0
-75 -1332 1338 0
-75 -1333 1339 0
-75 -1334 1340 0
-75 -1335 0
-76 1341 0
-1336 1341 0
-1337 1342 0
-1338 1343 0
-1339 1344 0
-1340 1345 0
-76 -1336 1342 0
-76 -1337 1343 0
-76 -1338 1344 0
-76 -1339 1345 0
-76 -1340 0
-77 1346 0
-1341 1346 0
-1342 1347 0
-1343 1348 0
-1344 1349 0
-1345 1350 0
-77 -1341 1347 0
-77 -1342 1348 0
-77 -1343 1349 0
-77 -1344 1350 0
-77 -1345 0
-78 1351 0
-1346 1351 0
-1347 1352 0
-1348 1353 0
-1349 1354 0
-1350 1355 0
-78 -1346 1352 0
-78 -1347 1353 0
-78 -1348 1354 0
-78 -1349 1355 0
-78 -1350 0
-79 1356 0
-1351 1356 0
-1352 1357 0
-1353 1358 0
-1354 1359 0
-1355 1360 0
-79 -1351 1357 0
-79 -1352 1358 0
-79 -1353 1359 0
-79 -1354 1360 0
-79 -1355 0
-80 1361 0
-1356 1361 0
-1357 1362 0
-1358 1363 0
-1359 1364 0
-1360 1365 0
-80 -1356 1362 0
-80 -1357 1363 0
-80 -1358 1364 0
-80 -1359 1365 0
-80 -1360 0
-81 1366 0
-1361 1366 0
-1362 1367 0
-1363 1368 0
-1364 1369 0
-1365 1370 0
-81 -1361 1367 0
-81 -1362 1368 0
-81 -1363 1369 0
-81 -1364 1370 0
-81 -1365 0
-82 1371 0
-1366 1371 0
-1367 1372 0
-1368 1373 0
-1369 1374 0
-1370 1375 0
-82 -1366 1372 0
-82 -1367 1373 0
-82 -1368 1374 0
-82 -1369 1375 0
-82 -1370 0
-83 1376 0
-1371 1376 0
-1372 1377 0
-1373 1378 0
-1374 1379 0
-1375 1380 0
-83 -1371 1377 0
-83 -1372 1378 0
-83 -1373 1379 0
-83 -1374 1380 0
-83 -1375 0
-84 1381 0
-1376 1381 0
-1377 1382 0
-1378 1383 0
-1379 1384 0
-1380 1385 0
-84 -1376 1382 0
-84 -1377 1383 0
-84 -1378 1384 0
-84 -1379 1385 0
-84 -1380 0
-85 1386 0
-1381 1386 0
-1382 1387 0
-1383 1388 0
-1384 1389 0
-1385 1390 0
-85 -1381 1387 0
-85 -1382 1388 0
-85 -1383 1389 0
-85 -1384 1390 0
-85 -1385 0
-86 1391 0
-1386 1391 0
-1387 1392 0
-1388 1393 0
-1389 1394 0
-1390 1395 0
-86 -1386 1392 0
-86 -1387 1393 0
-86 -1388 1394 0
-86 -1389 1395 0
-86 -1390 0
-87 1396 0
-1391 1396 0
-1392 1397 0
-1393 1398 0
-1394 1399 0
-1395 1400 0
-87 -1391 1397 0
-87 -1392 1398 0
-87 -1393 1399 0
-87 -1394 1400 0
-87 -1395 0
-88 1401 0
-1396 1401 0
-1397 1402 0
-1398 1403 0
-1399 1404 0
-1400 1405 0
-88 -1396 1402 0
-88 -1397 1403 0
-88 -1398 1404 0
-88 -1399 1405 0
-88 -1400 0
-89 1406 0
-1401 1406 0
-1402 1407 0
-1403 1408 0
-1404 1409 0
-1405 1410 0
-89 -1401 1407 0
-89 -1402 1408 0
-89 -1403 1409 0
-89 -1404 1410 0
-89 -1405 0
-90 1411 0
-1406 1411 0
-1407 1412 0
-1408 1413 0
-1409 1414 0
-1410 1415 0
-90 -1406 1412 0
-90 -1407 1413 0
-90 -1408 1414 0
-90 -1409 1415 0
-90 -1410 0
-91 1416 0
-1411 1416 0
-1412 1417 0
-1413 1418 0
-1414 1419 0
-1415 1420 0
-91 -1411 1417 0
-91 -1412 1418 0
-91 -1413 1419 0
-91 -1414 1420 0
-91 -1415 0
-92 1421 0
-1416 1421 0
-1417 1422 0
-1418 1423 0
-1419 1424 0
-1420 1425 0
-92 -1416 1422 0
-92 -1417 1423 0
-92 -1418 1424 0
-92 -1419 1425 0
-92 -1420 0
-93 1426 0
-1421 1426 0
-1422 1427 0
-1423 1428 0
-1424 1429 0
-1425 1430 0
-93 -1421 1427 0
-93 -1422 1428 0
-93 -1423 1429 0
-93 -1424 1430 0
-93 -1425 0
-94 1431 0
-1426 1431 0
-1427 1432 0
-1428 1433 0
-1429 1434 0
-1430 1435 0
-94 -1426 1432 0
-94 -1427 1433 0
-94 -1428 1434 0
-94 -1429 1435 0
-94 -1430 0
-95 1436 0
-1431 1436 0
-1432 1437 0
-1433 1438 0
-1434 1439 0
-1435 1440 0
-95 -1431 1437 0
-95 -1432 1438 0
-95 -1433 1439 0
-95 -1434 1440 0
-95 -1435 0
-96 1441 0
-1436 1441 0
-1437 1442 0
-1438 1443 0
-1439 1444 0
-1440 1445 0
-96 -1436 1442 0
-96 -1437 1443 0
-96 -1438 1444 0
-96 -1439 1445 0
-96 -1440 0
-97 1446 0
-1441 1446 0
-1442 1447 0
-1443 1448 0
-1444 1449 0
-1445 1450 0
-97 -1441 1447 0
-97 -1442 1448 0
-97 -1443 1449 0
-97 -1444 1450 0
-97 -1445 0
-98 1451 0
-1446 1451 0
-1447 1452 0
-1448 1453 0
-1449 1454 0
-1450 1455 0
-98 -1446 1452 0
-98 -1447 1453 0
-98 -1448 1454 0
-98 -1449 1455 0
-98 -1450 0
-99 1456 0
-1451 1456 0
-1452 1457 0
-1453 1458 0
-1454 1459 0
-1455 1460 0
-99 -1451 1457 0
-99 -1452 1458 0
-99 -1453 1459 0
-99 -1454 1460 0
-99 -1455 0
-100 1461 0
-1456 1461 0
-1457 1462 0
-1458 1463 0
-1459 1464 0
-1460 1465 0
-100 -1456 1462 0
-100 -1457 1463 0
-100 -1458 1464 0
-100 -1459 1465 0
-100 -1460 0
-101 1466 0
-1461 1466 0
-1462 1467 0
-1463 1468 0
-1464 1469 0
-1465 1470 0
-101 -1461 1467 0
-101 -1462 1468 0
-101 -1463 1469 0
-101 -1464 1470 0
-101 -1465 0
-102 1471 0
-1466 1471 0
-1467 1472 0
-1468 1473 0
-1469 1474 0
-1470 1475 0
-102 -1466 1472 0
-102 -1467 1473 0
-102 -1468 1474 0
-102 -1469 1475 0
-102 -1470 0
-103 1476 0
-1471 1476 0
-1472 1477 0
-1473 1478 0
-1474 1479 0
-1475 1480 0
-103 -1471 1477 0
-103 -1472 1478 0
-103 -1473 1479 0
-103 -1474 1480 0
-103 -1475 0
-104 1481 0
-1476 1481 0
-1477 1482 0
-1478 1483 0
-1479 1484 0
-1480 1485 0
-104 -1476 1482 0
-104 -1477 1483 0
-104 -1478 1484 0
-104 -1479 1485 0
-104 -1480 0
-105 1486 0
-1481 1486 0
-1482 1487 0
-1483 1488 0
-1484 1489 0
-1485 1490 0
-105 -1481 1487 0
-105 -1482 1488 0
-105 -1483 1489 0
-105 -1484 1490 0
-105 -1485 0
-106 1491 0
-1486 1491 0
-1487 1492 0
-1488 1493 0
-1489 1494 0
-1490 1495 0
-106 -1486 1492 0
-106 -1487 1493 0
-106 -1488 1494 0
-106 -1489 1495 0
-106 -1490 0
-107 1496 0
-1491 1496 0
-1492 1497 0
-1493 1498 0
-1494 1499 0
-1495 1500 0
-107 -1491 1497 0
-107 -1492 1498 0
-107 -1493 1499 0
-107 -1494 1500 0
-107 -1495 0
-108 1501 0
-1496 1501 0
-1497 1502 0
-1498 1503 0
-1499 1504 0
-1500 1505 0
-108 -1496 1502 0
-108 -1497 1503 0
-108 -1498 1504 0
-108 -1499 1505 0
-108 -1500 0
-109 1506 0
-1501 1506 0
-1502 1507 0
-1503 1508 0
-1504 1509 0
-1505 1510 0
-109 -1501 1507 0
-109 -1502 1508 0
-109 -1503 1509 0
-109 -1504 1510 0
-109 -1505 0
-110 1511 0
-1506 1511 0
-1507 1512 0
-1508 1513 0
-1509 1514 0
-1510 1515 0
-110 -1506 1512 0
-110 -1507 1513 0
-110 -1508 1514 0
-110 -1509 1515 0
-110 -1510 0
-111 1516 0
-1511 1516 0
-1512 1517 0
-1513 1518 0
-1514 1519 0
-1515 1520 0
-111 -1511 1517 0
-111 -1512 1518 0
-111 -1513 1519 0
-111 -1514 1520 0
-111 -1515 0
-112 1521 0
-1516 1521 0
-1517 1522 0
-1518 1523 0
-1519 1524 0
-1520 1525 0
-112 -1516 1522 0
-112 -1517 1523 0
-112 -1518 1524 0
-112 -1519 1525 0
-112 -1520 0
-113 1526 0
-1521 1526 0
-1522 1527 0
-1523 1528 0
-1524 1529 0
-1525 1530 0
-113 -1521 1527 0
-113 -1522 1528 0
-113 -1523 1529 0
-113 -1524 1530 0
-113 -1525 0
-114 1531 0
-1526 1531 0
-1527 1532 0
-1528 1533 0
-1529 1534 0
-1530 1535 0
-114 -1526 1532 0
-114 -1527 1533 0
-114 -1528 1534 0
-114 -1529 1535 0
-114 -1530 0
-115 1536 0
-1531 1536 0
-1532 1537 0
-1533 1538 0
-1534 1539 0
-1535 1540 0
-115 -1531 1537 0
-115 -1532 1538 0
-115 -1533 1539 0
-115 -1534 1540 0
-115 -1535 0
-116 1541 0
-1536 1541 0
-1537 1542 0
-1538 1543 0
-1539 1544 0
-1540 1545 0
-116 -1536 1542 0
-116 -1537 1543 0
-116 -1538 1544 0
-116 -1539 1545 0
-116 -1540 0
-117 1546 0
-1541 1546 0
-1542 1547 0
-1543 1548 0
-1544 1549 0
-1545 1550 0
-117 -1541 1547 0
-117 -1542 1548 0
-117 -1543 1549 0
-117 -1544 1550 0
-117 -1545 0
-118 1551 0
-1546 1551 0
-1547 1552 0
-1548 1553 0
-1549 1554 0
-1550 1555 0
-118 -1546 1552 0
-118 -1547 1553 0
-118 -1548 1554 0
-118 -1549 1555 0
-118 -1550 0
-119 1556 0
-1551 1556 0
-1552 1557 0
-1553 1558 0
-1554 1559 0
-1555 1560 0
-119 -1551 1557 0
-119 -1552 1558 0
-119 -1553 1559 0
-119 -1554 1560 0
-119 -1555 0
-120 1561 0
-1556 1561 0
-1557 1562 0
-1558 1563 0
-1559 1564 0
-1560 1565 0
-120 -1556 1562 0
-120 -1557 1563 0
-120 -1558 1564 0
-120 -1559 1565 0
-120 -1560 0
-121 1566 0
-1561 1566 0
-1562 1567 0
-1563 1568 0
-1564 1569 0
-1565 1570 0
-121 -1561 1567 0
-121 -1562 1568 0
-121 -1563 1569 0
-121 -1564 1570 0
-121 -1565 0
-122 1571 0
-1566 1571 0
-1567 1572 0
-1568 1573 0
-1569 1574 0
-1570 1575 0
-122 -1566 1572 0
-122 -1567 1573 0
-122 -1568 1574 0
-122 -1569 1575 0
-122 -1570 0
-123 1576 0
-1571 1576 0
-1572 1577 0
-1573 1578 0
-1574 1579 0
-1575 1580 0
-123 -1571 1577 0
-123 -1572 1578 0
-123 -1573 1579 0
-123 -1574 1580 0
-123 -1575 0
-124 1581 0
-1576 1581 0
-1577 1582 0
-1578 1583 0
-1579 1584 0
-1580 1585 0
-124 -1576 1582 0
-124 -1577 1583 0
-124 -1578 1584 0
-124 -1579 1585 0
-124 -1580 0
-125 1586 0
-1581 1586 0
-1582 1587 0
-1583 1588 0
-1584 1589 0
-1585 1590 0
-125 -1581 1587 0
-125 -1582 1588 0
-125 -1583 1589 0
-125 -1584 1590 0
-125 -1585 0
-126 1591 0
-1586 1591 0
-1587 1592 0
-1588 1593 0
-1589 1594 0
-1590 1595 0
-126 -1586 1592 0
-126 -1587 1593 0
-126 -1588 1594 0
-126 -1589 1595 0
-126 -1590 0
-127 1596 0
-1591 1596 0
-1592 1597 0
-1593 1598 0
-1594 1599 0
-1595 1600 0
-127 -1591 1597 0
-127 -1592 1598 0
-127 -1593 1599 0
-127 -1594 1600 0
-127 -1595 0
-128 1601 0
-1596 1601 0
-1597 1602 0
-1598 1603 0
-1599 1604 0
-1600 1605 0
-128 -1596 1602 0
-128 -1597 1603 0
-128 -1598 1604 0
-128 -1599 1605 0
-128 -1600 0
-129 1606 0
-1601 1606 0
-1602 1607 0
-1603 1608 0
-1604 1609 0
-1605 1610 0
-129 -1601 1607 0
-129 -1602 1608 0
-129 -1603 1609 0
-129 -1604 1610 0
-129 -1605 0
-130 1611 0
-1606 1611 0
-1607 1612 0
-1608 1613 0
-1609 1614 0
-1610 1615 0
-130 -1606 1612 0
-130 -1607 1613 0
-130 -1608 1614 0
-130 -1609 1615 0
-130 -1610 0
-131 1616 0
-1611 1616 0
-1612 1617 0
-1613 1618 0
-1614 1619 0
-1615 1620 0
-131 -1611 1617 0
-131 -1612 1618 0
-131 -1613 1619 0
-131 -1614 1620 0
-131 -1615 0
-132 1621 0
-1616 1621 0
-1617 1622 0
-1618 1623 0
-1619 1624 0
-1620 1625 0
-132 -1616 1622 0
-132 -1617 1623 0
-132 -1618 1624 0
-132 -1619 1625 0
-132 -1620 0
-133 1626 0
-1621 1626 0
-1622 1627 0
-1623 1628 0
-1624 1629 0
-1625 1630 0
-133 -1621 1627 0
-133 -1622 1628 0
-133 -1623 1629 0
-133 -1624 1630 0
-133 -1625 0
-134 1631 0
-1626 1631 0
-1627 1632 0
-1628 1633 0
-1629 1634 0
-1630 1635 0
-134 -1626 1632 0
-134 -1627 1633 0
-134 -1628 1634 0
-134 -1629 1635 0
-134 -1630 0
-135 1636 0
-1631 1636 0
-1632 1637 0
-1633 1638 0
-1634 1639 0
-1635 1640 0
-135 -1631 1637 0
-135 -1632 1638 0
-135 -1633 1639 0
-135 -1634 1640 0
-135 -1635 0
-136 1641 0
-1636 1641 0
-1637 1642 0
-1638 1643 0
-1639 1644 0
-1640 1645 0
-136 -1636 1642 0
-136 -1637 1643 0
-136 -1638 1644 0
-136 -1639 1645 0
-136 -1640 0
-137 1646 0
-1641 1646 0
-1642 1647 0
-1643 1648 0
-1644 1649 0
-1645 1650 0
-137 -1641 1647 0
-137 -1642 1648 0
-137 -1643 1649 0
-137 -1644 1650 0
-137 -1645 0
-138 1651 0
-1646 1651 0
-1647 1652 0
-1648 1653 0
-1649 1654 0
-1650 1655 0
-138 -1646 1652 0
-138 -1647 1653 0
-138 -1648 1654 0
-138 -1649 1655 0
-138 -1650 0
-139 1656 0
-1651 1656 0
-1652 1657 0
-1653 1658 0
-1654 1659 0
-1655 1660 0
-139 -1651 1657 0
-139 -1652 1658 0
-139 -1653 1659 0
-139 -1654 1660 0
-139 -1655 0
-140 1661 0
-1656 1661 0
-1657 1662 0
-1658 1663 0
-1659 1664 0
-1660 1665 0
-140 -1656 1662 0
-140 -1657 1663 0
-140 -1658 1664 0
-140 -1659 1665 0
-140 -1660 0
-141 1666 0
-1661 1666 0
-1662 1667 0
-1663 1668 0
-1664 1669 0
-1665 1670 0
-141 -1661 1667 0
-141 -1662 1668 0
-141 -1663 1669 0
-141 -1664 1670 0
-141 -1665 0
-142 1671 0
-1666 1671 0
-1667 1672 0
-1668 1673 0
-1669 1674 0
-1670 1675 0
-142 -1666 1672 0
-142 -1667 1673 0
-142 -1668 1674 0
-142 -1669 1675 0
-142 -1670 0
-143 1676 0
-1671 1676 0
-1672 1677 0
-1673 1678 0
-1674 1679 0
-1675 1680 0
-143 -1671 1677 0
-143 -1672 1678 0
-143 -1673 1679 0
-143 -1674 1680 0
-143 -1675 0
-144 1681 0
-1676 1681 0
-1677 1682 0
-1678 1683 0
-1679 1684 0
-1680 1685 0
-144 -1676 1682 0
-144 -1677 1683 0
-144 -1678 1684 0
-144 -1679 1685 0
-144 -1680 0
-145 1686 0
-1681 1686 0
-1682 1687 0
-1683 1688 0
-1684 1689 0
-1685 1690 0
-145 -1681 1687 0
-145 -1682 1688 0
-145 -1683 1689 0
-145 -1684 1690 0
-145 -1685 0
-146 1691 0
-1686 1691 0
-1687 1692 0
-1688 1693 0
-1689 1694 0
-1690 1695 0
-146 -1686 1692 0
-146 -1687 1693 0
-146 -1688 1694 0
-146 -1689 1695 0
-146 -1690 0
-147 1696 0
-1691 1696 0
-1692 1697 0
-1693 1698 0
-1694 1699 0
-1695 1700 0
-147 -1691 1697 0
-147 -1692 1698 0
-147 -1693 1699 0
-147 -1694 1700 0
-147 -1695 0
-148 1701 0
-1696 1701 0
-1697 1702 0
-1698 1703 0
-1699 1704 0
-1700 1705 0
-148 -1696 1702 0
-148 -1697 1703 0
-148 -1698 1704 0
-148 -1699 1705 0
-148 -1700 0
-149 1706 0
-1701 1706 0
-1702 1707 0
-1703 1708 0
-1704 1709 0
-1705 1710 0
-149 -1701 1707 0
-149 -1702 1708 0
-149 -1703 1709 0
-149 -1704 1710 0
-149 -1705 0
-150 1711 0
-1706 1711 0
-1707 1712 0
-1708 1713 0
-1709 1714 0
-1710 1715 0
-150 -1706 1712 0
-150 -1707 1713 0
-150 -1708 1714 0
-150 -1709 1715 0
-150 -1710 0
-151 1716 0
-1711 1716 0
-1712 1717 0
-1713 1718 0
-1714 1719 0
-1715 1720 0
-151 -1711 1717 0
-151 -1712 1718 0
-151 -1713 1719 0
-151 -1714 1720 0
-151 -1715 0
-152 1721 0
-1716 1721 0
-1717 1722 0
-1718 1723 0
-1719 1724 0
-1720 1725 0
-152 -1716 1722 0
-152 -1717 1723 0
-152 -1718 1724 0
-152 -1719 1725 0
-152 -1720 0
-153 1726 0
-1721 1726 0
-1722 1727 0
-1723 1728 0
-1724 1729 0
-1725 1730 0
-153 -1721 1727 0
-153 -1722 1728 0
-153 -1723 1729 0
-153 -1724 1730 0
-153 -1725 0
-154 1731 0
-1726 1731 0
-1727 1732 0
-1728 1733 0
-1729 1734 0
-1730 1735 0
-154 -1726 1732 0
-154 -1727 1733 0
-154 -1728 1734 0
-154 -1729 1735 0
-154 -1730 0
-155 1736 0
-1731 1736 0
-1732 1737 0
-1733 1738 0
-1734 1739 0
-1735 1740 0
-155 -1731 1737 0
-155 -1732 1738 0
-155 -1733 1739 0
-155 -1734 1740 0
-155 -1735 0
-156 1741 0
-1736 1741 0
-1737 1742 0
-1738 1743 0
-1739 1744 0
-1740 1745 0
-156 -1736 1742 0
-156 -1737 1743 0
-156 -1738 1744 0
-156 -1739 1745 0
-156 -1740 0
-157 1746 0
-1741 1746 0
-1742 1747 0
-1743 1748 0
-1744 1749 0
-1745 1750 0
-157 -1741 1747 0
-157 -1742 1748 0
-157 -1743 1749 0
-157 -1744 1750 0
-157 -1745 0
-158 1751 0
-1746 1751 0
-1747 1752 0
-1748 1753 0
-1749 1754 0
-1750 1755 0
-158 -1746 1752 0
-158 -1747 1753 0
-158 -1748 1754 0
-158 -1749 1755 0
-158 -1750 0
-159 1756 0
-1751 1756 0
-1752 1757 0
-1753 1758 0
-1754 1759 0
-1755 1760 0
-159 -1751 1757 0
-159 -1752 1758 0
-159 -1753 1759 0
-159 -1754 1760 0
-159 -1755 0
-160 1761 0
-1756 1761 0
-1757 1762 0
-1758 1763 0
-1759 1764 0
-1760 1765 0
-160 -1756 1762 0
-160 -1757 1763 0
-160 -1758 1764 0
-160 -1759 1765 0
-160 -1760 0
-161 1766 0
-1761 1766 0
-1762 1767 0
-1763 1768 0
-1764 1769 0
-1765 1770 0
-161 -1761 1767 0
-161 -1762 1768 0
-161 -1763 1769 0
-161 -1764 1770 0
-161 -1765 0
-162 1771 0
-1766 1771 0
-1767 1772 0
-1768 1773 0
-1769 1774 0
-1770 1775 0
-162 -1766 1772 0
-162 -1767 1773 0
-162 -1768 1774 0
-162 -1769 1775 0
-162 -1770 0
-163 1776 0
-1771 1776 0
-1772 1777 0
-1773 1778 0
-1774 1779 0
-1775 1780 0
-163 -1771 1777 0
-163 -1772 1778 0
-163 -1773 1779 0
-163 -1774 1780 0
-163 -1775 0
-164 1781 0
-1776 1781 0
-1777 1782 0
-1778 1783 0
-1779 1784 0
-1780 1785 0
-164 -1776 1782 0
-164 -1777 1783 0
-164 -1778 1784 0
-164 -1779 1785 0
-164 -1780 0
-165 1786 0
-1781 1786 0
-1782 1787 0
-1783 1788 0
-1784 1789 0
-1785 1790 0
-165 -1781 1787 0
-165 -1782 1788 0
-165 -1783 1789 0
-165 -1784 1790 0
-165 -1785 0
-166 1791 0
-1786 1791 0
-1787 1792 0
-1788 1793 0
-1789 1794 0
-1790 1795 0
-166 -1786 1792 0
-166 -1787 1793 0
-166 -1788 1794 0
-166 -1789 1795 0
-166 -1790 0
-167 1796 0
-1791 1796 0
-1792 1797 0
-1793 1798 0
-1794 1799 0
-1795 1800 0
-167 -1791 1797 0
-167 -1792 1798 0
-167 -1793 1799 0
-167 -1794 1800 0
-167 -1795 0
-168 1801 0
-1796 1801 0
-1797 1802 0
-1798 1803 0
-1799 1804 0
-1800 1805 0
-168 -1796 1802 0
-168 -1797 1803 0
-168 -1798 1804 0
-168 -1799 1805 0
-168 -1800 0
-169 1806 0
-1801 1806 0
-1802 1807 0
-1803 1808 0
-1804 1809 0
-1805 1810 0
-169 -1801 1807 0
-169 -1802 1808 0
-169 -1803 1809 0
-169 -1804 1810 0
-169 -1805 0
-170 1811 0
-1806 1811 0
-1807 1812 0
-1808 1813 0
-1809 1814 0
-1810 1815 0
-170 -1806 1812 0
-170 -1807 1813 0
-170 -1808 1814 0
-170 -1809 1815 0
-170 -1810 0
-171 1816 0
-1811 1816 0
-1812 1817 0
-1813 1818 0
-1814 1819 0
-1815 1820 0
-171 -1811 1817 0
-171 -1812 1818 0
-171 -1813 1819 0
-171 -1814 1820 0
-171 -1815 0
-172 1821 0
-1816 1821 0
-1817 1822 0
-1818 1823 0
-1819 1824 0
-1820 1825 0
-172 -1816 1822 0
-172 -1817 1823 0
-172 -1818 1824 0
-172 -1819 1825 0
-172 -1820 0
-173 1826 0
-1821 1826 0
-1822 1827 0
-1823 1828 0
-1824 1829 0
-1825 1830 0
-173 -1821 1827 0
-173 -1822 1828 0
-173 -1823 1829 0
-173 -1824 1830 0
-173 -1825 0
-174 1831 0
-1826 1831 0
-1827 1832 0
-1828 1833 0
-1829 1834 0
-1830 1835 0
-174 -1826 1832 0
-174 -1827 1833 0
-174 -1828 1834 0
-174 -1829 1835 0
-174 -1830 0
-175 1836 0
-1831 1836 0
-1832 1837 0
-1833 1838 0
-1834 1839 0
-1835 1840 0
-175 -1831 1837 0
-175 -1832 1838 0
-175 -1833 1839 0
-175 -1834 1840 0
-175 -1835 0
-176 1841 0
-1836 1841 0
-1837 1842 0
-1838 1843 0
-1839 1844 0
-1840 1845 0
-176 -1836 1842 0
-176 -1837 1843 0
-176 -1838 1844 0
-176 -1839 1845 0
-176 -1840 0
-177 1846 0
-1841 1846 0
-1842 1847 0
-1843 1848 0
-1844 1849 0
-1845 1850 0
-177 -1841 1847 0
-177 -1842 1848 0
-177 -1843 1849 0
-177 -1844 1850 0
-177 -1845 0
-178 1851 0
-1846 1851 0
-1847 1852 0
-1848 1853 0
-1849 1854 0
-1850 1855 0
-178 -1846 1852 0
-178 -1847 1853 0
-178 -1848 1854 0
-178 -1849 1855 0
-178 -1850 0
-179 1856 0
-1851 1856 0
-1852 1857 0
-1853 1858 0
-1854 1859 0
-1855 1860 0
-179 -1851 1857 0
-179 -1852 1858 0
-179 -1853 1859 0
-179 -1854 1860 0
-179 -1855 0
-180 1861 0
-1856 1861 0
-1857 1862 0
-1858 1863 0
-1859 1864 0
-1860 1865 0
-180 -1856 1862 0
-180 -1857 1863 0
-180 -1858 1864 0
-180 -1859 1865 0
-180 -1860 0
-181 1866 0
-1861 1866 0
-1862 1867 0
-1863 1868 0
-1864 1869 0
-1865 1870 0
-181 -1861 1867 0
-181 -1862 1868 0
-181 -1863 1869 0
-181 -1864 1870 0
-181 -1865 0
-182 1871 0
-1866 1871 0
-1867 1872 0
-1868 1873 0
-1869 1874 0
-1870 1875 0
-182 -1866 1872 0
-182 -1867 1873 0
-182 -1868 1874 0
-182 -1869 1875 0
-182 -1870 0
-183 1876 0
-1871 1876 0
-1872 1877 0
-1873 1878 0
-1874 1879 0
-1875 1880 0
-183 -1871 1877 0
-183 -1872 1878 0
-183 -1873 1879 0
-183 -1874 1880 0
-183 -1875 0
-184 1881 0
-1876 1881 0
-1877 1882 0
-1878 1883 0
-1879 1884 0
-1880 1885 0
-184 -1876 1882 0
-184 -1877 1883 0
-184 -1878 1884 0
-184 -1879 1885 0
-184 -1880 0
-185 1886 0
-1881 1886 0
-1882 1887 0
-1883 1888 0
-1884 1889 0
-1885 1890 0
-185 -1881 1887 0
-185 -1882 1888 0
-185 -1883 1889 0
-185 -1884 1890 0
-185 -1885 0
-186 1891 0
-1886 1891 0
-1887 1892 0
-1888 1893 0
-1889 1894 0
-1890 1895 0
-186 -1886 1892 0
-186 -1887 1893 0
-186 -1888 1894 0
-186 -1889 1895 0
-186 -1890 0
-187 1896 0
-1891 1896 0
-1892 1897 0
-1893 1898 0
-1894 1899 0
-1895 1900 0
-187 -1891 1897 0
-187 -1892 1898 0
-187 -1893 1899 0
-187 -1894 1900 0
-187 -1895 0
-188 1901 0
-1896 1901 0
-1897 1902 0
-1898 1903 0
-1899 1904 0
-1900 1905 0
-188 -1896 1902 0
-188 -1897 1903 0
-188 -1898 1904 0
-188 -1899 1905 0
-188 -1900 0
-189 1906 0
-1901 1906 0
-1902 1907 0
-1903 1908 0
-1904 1909 0
-1905 1910 0
-189 -1901 1907 0
-189 -1902 1908 0
-189 -1903 1909 0
-189 -1904 1910 0
-189 -1905 0
-190 1911 0
-1906 1911 0
-1907 1912 0
-1908 1913 0
-1909 1914 0
-1910 1915 0
-190 -1906 1912 0
-190 -1907 1913 0
-190 -1908 1914 0
-190 -1909 1915 0
-190 -1910 0
-191 1916 0
-1911 1916 0
-1912 1917 0
-1913 1918 0
-1914 1919 0
-1915 1920 0
-191 -1911 1917 0
-191 -1912 1918 0
-191 -1913 1919 0
-191 -1914 1920 0
-191 -1915 0
-192 1921 0
-1916 1921 0
-1917 1922 0
-1918 1923 0
-1919 1924 0
-1920 1925 0
-192 -1916 1922 0
-192 -1917 1923 0
-192 -1918 1924 0
-192 -1919 1925 0
-192 -1920 0
-193 1926 0
-1921 1926 0
-1922 1927 0
-1923 1928 0
-1924 1929 0
-1925 1930 0
-193 -1921 1927 0
-193 -1922 1928 0
-193 -1923 1929 0
-193 -1924 1930 0
-193 -1925 0
-194 1931 0
-1926 1931 0
-1927 1932 0
-1928 1933 0
-1929 1934 0
-1930 1935 0
-194 -1926 1932 0
-194 -1927 1933 0
-194 -1928 1934 0
-194 -1929 1935 0
-194 -1930 0
-195 1936 0
-1931 1936 0
-1932 1937 0
-1933 1938 0
-1934 1939 0
-1935 1940 0
-195 -1931 1937 0
-195 -1932 1938 0
-195 -1933 1939 0
-195 -1934 1940 0
-195 -1935 0
