c 130v unrestricted F2^2 flow with at most four zero edges
p cnf 1359 3360
-1 -3 -5 0
-1 3 5 0
1 -3 5 0
1 3 -5 0
-2 -4 -6 0
-2 4 6 0
2 -4 6 0
2 4 -6 0
-7 -9 -11 0
-7 9 11 0
7 -9 11 0
7 9 -11 0
-8 -10 -12 0
-8 10 12 0
8 -10 12 0
8 10 -12 0
-13 -15 -17 0
-13 15 17 0
13 -15 17 0
13 15 -17 0
-14 -16 -18 0
-14 16 18 0
14 -16 18 0
14 16 -18 0
-19 -21 -23 0
-19 21 23 0
19 -21 23 0
19 21 -23 0
-20 -22 -24 0
-20 22 24 0
20 -22 24 0
20 22 -24 0
-25 -27 -29 0
-25 27 29 0
25 -27 29 0
25 27 -29 0
-26 -28 -30 0
-26 28 30 0
26 -28 30 0
26 28 -30 0
-31 -33 -35 0
-31 33 35 0
31 -33 35 0
31 33 -35 0
-32 -34 -36 0
-32 34 36 0
32 -34 36 0
32 34 -36 0
-37 -39 -41 0
-37 39 41 0
37 -39 41 0
37 39 -41 0
-38 -40 -42 0
-38 40 42 0
38 -40 42 0
38 40 -42 0
-43 -45 -47 0
-43 45 47 0
43 -45 47 0
43 45 -47 0
-44 -46 -48 0
-44 46 48 0
44 -46 48 0
44 46 -48 0
-49 -51 -53 0
-49 51 53 0
49 -51 53 0
49 51 -53 0
-50 -52 -54 0
-50 52 54 0
50 -52 54 0
50 52 -54 0
-7 -55 -57 0
-7 55 57 0
7 -55 57 0
7 55 -57 0
-8 -56 -58 0
-8 56 58 0
8 -56 58 0
8 56 -58 0
-13 -59 -61 0
-13 59 61 0
13 -59 61 0
13 59 -61 0
-14 -60 -62 0
-14 60 62 0
14 -60 62 0
14 60 -62 0
-19 -25 -63 0
-19 25 63 0
19 -25 63 0
19 25 -63 0
-20 -26 -64 0
-20 26 64 0
20 -26 64 0
20 26 -64 0
-21 -31 -65 0
-21 31 65 0
21 -31 65 0
21 31 -65 0
-22 -32 -66 0
-22 32 66 0
22 -32 66 0
22 32 -66 0
-23 -27 -49 0
-23 27 49 0
23 -27 49 0
23 27 -49 0
-24 -28 -50 0
-24 28 50 0
24 -28 50 0
24 28 -50 0
-9 -37 -51 0
-9 37 51 0
9 -37 51 0
9 37 -51 0
-10 -38 -52 0
-10 38 52 0
10 -38 52 0
10 38 -52 0
-11 -33 -39 0
-11 33 39 0
11 -33 39 0
11 33 -39 0
-12 -34 -40 0
-12 34 40 0
12 -34 40 0
12 34 -40 0
-15 -35 -41 0
-15 35 41 0
15 -35 41 0
15 35 -41 0
-16 -36 -42 0
-16 36 42 0
16 -36 42 0
16 36 -42 0
-29 -43 -59 0
-29 43 59 0
29 -43 59 0
29 43 -59 0
-30 -44 -60 0
-30 44 60 0
30 -44 60 0
30 44 -60 0
-45 -55 -61 0
-45 55 61 0
45 -55 61 0
45 55 -61 0
-46 -56 -62 0
-46 56 62 0
46 -56 62 0
46 56 -62 0
-17 -47 -57 0
-17 47 57 0
17 -47 57 0
17 47 -57 0
-18 -48 -58 0
-18 48 58 0
18 -48 58 0
18 48 -58 0
-67 -69 -71 0
-67 69 71 0
67 -69 71 0
67 69 -71 0
-68 -70 -72 0
-68 70 72 0
68 -70 72 0
68 70 -72 0
-73 -75 -77 0
-73 75 77 0
73 -75 77 0
73 75 -77 0
-74 -76 -78 0
-74 76 78 0
74 -76 78 0
74 76 -78 0
-79 -81 -83 0
-79 81 83 0
79 -81 83 0
79 81 -83 0
-80 -82 -84 0
-80 82 84 0
80 -82 84 0
80 82 -84 0
-67 -85 -87 0
-67 85 87 0
67 -85 87 0
67 85 -87 0
-68 -86 -88 0
-68 86 88 0
68 -86 88 0
68 86 -88 0
-53 -73 -89 0
-53 73 89 0
53 -73 89 0
53 73 -89 0
-54 -74 -90 0
-54 74 90 0
54 -74 90 0
54 74 -90 0
-69 -75 -79 0
-69 75 79 0
69 -75 79 0
69 75 -79 0
-70 -76 -80 0
-70 76 80 0
70 -76 80 0
70 76 -80 0
-77 -85 -91 0
-77 85 91 0
77 -85 91 0
77 85 -91 0
-78 -86 -92 0
-78 86 92 0
78 -86 92 0
78 86 -92 0
-81 -87 -89 0
-81 87 89 0
81 -87 89 0
81 87 -89 0
-82 -88 -90 0
-82 88 90 0
82 -88 90 0
82 88 -90 0
-93 -95 -97 0
-93 95 97 0
93 -95 97 0
93 95 -97 0
-94 -96 -98 0
-94 96 98 0
94 -96 98 0
94 96 -98 0
-99 -101 -103 0
-99 101 103 0
99 -101 103 0
99 101 -103 0
-100 -102 -104 0
-100 102 104 0
100 -102 104 0
100 102 -104 0
-105 -107 -109 0
-105 107 109 0
105 -107 109 0
105 107 -109 0
-106 -108 -110 0
-106 108 110 0
106 -108 110 0
106 108 -110 0
-93 -111 -113 0
-93 111 113 0
93 -111 113 0
93 111 -113 0
-94 -112 -114 0
-94 112 114 0
94 -112 114 0
94 112 -114 0
-63 -99 -115 0
-63 99 115 0
63 -99 115 0
63 99 -115 0
-64 -100 -116 0
-64 100 116 0
64 -100 116 0
64 100 -116 0
-95 -101 -105 0
-95 101 105 0
95 -101 105 0
95 101 -105 0
-96 -102 -106 0
-96 102 106 0
96 -102 106 0
96 102 -106 0
-103 -111 -117 0
-103 111 117 0
103 -111 117 0
103 111 -117 0
-104 -112 -118 0
-104 112 118 0
104 -112 118 0
104 112 -118 0
-107 -113 -115 0
-107 113 115 0
107 -113 115 0
107 113 -115 0
-108 -114 -116 0
-108 114 116 0
108 -114 116 0
108 114 -116 0
-1 -119 -121 0
-1 119 121 0
1 -119 121 0
1 119 -121 0
-2 -120 -122 0
-2 120 122 0
2 -120 122 0
2 120 -122 0
-123 -125 -127 0
-123 125 127 0
123 -125 127 0
123 125 -127 0
-124 -126 -128 0
-124 126 128 0
124 -126 128 0
124 126 -128 0
-129 -131 -133 0
-129 131 133 0
129 -131 133 0
129 131 -133 0
-130 -132 -134 0
-130 132 134 0
130 -132 134 0
130 132 -134 0
-119 -135 -137 0
-119 135 137 0
119 -135 137 0
119 135 -137 0
-120 -136 -138 0
-120 136 138 0
120 -136 138 0
120 136 -138 0
-65 -123 -139 0
-65 123 139 0
65 -123 139 0
65 123 -139 0
-66 -124 -140 0
-66 124 140 0
66 -124 140 0
66 124 -140 0
-121 -125 -129 0
-121 125 129 0
121 -125 129 0
121 125 -129 0
-122 -126 -130 0
-122 126 130 0
122 -126 130 0
122 126 -130 0
-127 -135 -141 0
-127 135 141 0
127 -135 141 0
127 135 -141 0
-128 -136 -142 0
-128 136 142 0
128 -136 142 0
128 136 -142 0
-131 -137 -139 0
-131 137 139 0
131 -137 139 0
131 137 -139 0
-132 -138 -140 0
-132 138 140 0
132 -138 140 0
132 138 -140 0
-3 -143 -145 0
-3 143 145 0
3 -143 145 0
3 143 -145 0
-4 -144 -146 0
-4 144 146 0
4 -144 146 0
4 144 -146 0
-147 -149 -151 0
-147 149 151 0
147 -149 151 0
147 149 -151 0
-148 -150 -152 0
-148 150 152 0
148 -150 152 0
148 150 -152 0
-153 -155 -157 0
-153 155 157 0
153 -155 157 0
153 155 -157 0
-154 -156 -158 0
-154 156 158 0
154 -156 158 0
154 156 -158 0
-143 -159 -161 0
-143 159 161 0
143 -159 161 0
143 159 -161 0
-144 -160 -162 0
-144 160 162 0
144 -160 162 0
144 160 -162 0
-71 -147 -163 0
-71 147 163 0
71 -147 163 0
71 147 -163 0
-72 -148 -164 0
-72 148 164 0
72 -148 164 0
72 148 -164 0
-145 -149 -153 0
-145 149 153 0
145 -149 153 0
145 149 -153 0
-146 -150 -154 0
-146 150 154 0
146 -150 154 0
146 150 -154 0
-151 -159 -165 0
-151 159 165 0
151 -159 165 0
151 159 -165 0
-152 -160 -166 0
-152 160 166 0
152 -160 166 0
152 160 -166 0
-155 -161 -163 0
-155 161 163 0
155 -161 163 0
155 161 -163 0
-156 -162 -164 0
-156 162 164 0
156 -162 164 0
156 162 -164 0
-5 -167 -169 0
-5 167 169 0
5 -167 169 0
5 167 -169 0
-6 -168 -170 0
-6 168 170 0
6 -168 170 0
6 168 -170 0
-171 -173 -175 0
-171 173 175 0
171 -173 175 0
171 173 -175 0
-172 -174 -176 0
-172 174 176 0
172 -174 176 0
172 174 -176 0
-177 -179 -181 0
-177 179 181 0
177 -179 181 0
177 179 -181 0
-178 -180 -182 0
-178 180 182 0
178 -180 182 0
178 180 -182 0
-167 -183 -185 0
-167 183 185 0
167 -183 185 0
167 183 -185 0
-168 -184 -186 0
-168 184 186 0
168 -184 186 0
168 184 -186 0
-97 -171 -187 0
-97 171 187 0
97 -171 187 0
97 171 -187 0
-98 -172 -188 0
-98 172 188 0
98 -172 188 0
98 172 -188 0
-169 -173 -177 0
-169 173 177 0
169 -173 177 0
169 173 -177 0
-170 -174 -178 0
-170 174 178 0
170 -174 178 0
170 174 -178 0
-175 -183 -189 0
-175 183 189 0
175 -183 189 0
175 183 -189 0
-176 -184 -190 0
-176 184 190 0
176 -184 190 0
176 184 -190 0
-179 -185 -187 0
-179 185 187 0
179 -185 187 0
179 185 -187 0
-180 -186 -188 0
-180 186 188 0
180 -186 188 0
180 186 -188 0
-83 -91 -191 0
-83 91 191 0
83 -91 191 0
83 91 -191 0
-84 -92 -192 0
-84 92 192 0
84 -92 192 0
84 92 -192 0
-109 -117 -193 0
-109 117 193 0
109 -117 193 0
109 117 -193 0
-110 -118 -194 0
-110 118 194 0
110 -118 194 0
110 118 -194 0
-133 -141 -195 0
-133 141 195 0
133 -141 195 0
133 141 -195 0
-134 -142 -196 0
-134 142 196 0
134 -142 196 0
134 142 -196 0
-157 -165 -197 0
-157 165 197 0
157 -165 197 0
157 165 -197 0
-158 -166 -198 0
-158 166 198 0
158 -166 198 0
158 166 -198 0
-181 -189 -199 0
-181 189 199 0
181 -189 199 0
181 189 -199 0
-182 -190 -200 0
-182 190 200 0
182 -190 200 0
182 190 -200 0
-201 -203 -205 0
-201 203 205 0
201 -203 205 0
201 203 -205 0
-202 -204 -206 0
-202 204 206 0
202 -204 206 0
202 204 -206 0
-207 -209 -211 0
-207 209 211 0
207 -209 211 0
207 209 -211 0
-208 -210 -212 0
-208 210 212 0
208 -210 212 0
208 210 -212 0
-213 -215 -217 0
-213 215 217 0
213 -215 217 0
213 215 -217 0
-214 -216 -218 0
-214 216 218 0
214 -216 218 0
214 216 -218 0
-219 -221 -223 0
-219 221 223 0
219 -221 223 0
219 221 -223 0
-220 -222 -224 0
-220 222 224 0
220 -222 224 0
220 222 -224 0
-225 -227 -229 0
-225 227 229 0
225 -227 229 0
225 227 -229 0
-226 -228 -230 0
-226 228 230 0
226 -228 230 0
226 228 -230 0
-231 -233 -235 0
-231 233 235 0
231 -233 235 0
231 233 -235 0
-232 -234 -236 0
-232 234 236 0
232 -234 236 0
232 234 -236 0
-237 -239 -241 0
-237 239 241 0
237 -239 241 0
237 239 -241 0
-238 -240 -242 0
-238 240 242 0
238 -240 242 0
238 240 -242 0
-243 -245 -247 0
-243 245 247 0
243 -245 247 0
243 245 -247 0
-244 -246 -248 0
-244 246 248 0
244 -246 248 0
244 246 -248 0
-249 -251 -253 0
-249 251 253 0
249 -251 253 0
249 251 -253 0
-250 -252 -254 0
-250 252 254 0
250 -252 254 0
250 252 -254 0
-207 -255 -257 0
-207 255 257 0
207 -255 257 0
207 255 -257 0
-208 -256 -258 0
-208 256 258 0
208 -256 258 0
208 256 -258 0
-213 -259 -261 0
-213 259 261 0
213 -259 261 0
213 259 -261 0
-214 -260 -262 0
-214 260 262 0
214 -260 262 0
214 260 -262 0
-219 -225 -263 0
-219 225 263 0
219 -225 263 0
219 225 -263 0
-220 -226 -264 0
-220 226 264 0
220 -226 264 0
220 226 -264 0
-221 -231 -265 0
-221 231 265 0
221 -231 265 0
221 231 -265 0
-222 -232 -266 0
-222 232 266 0
222 -232 266 0
222 232 -266 0
-223 -227 -249 0
-223 227 249 0
223 -227 249 0
223 227 -249 0
-224 -228 -250 0
-224 228 250 0
224 -228 250 0
224 228 -250 0
-209 -237 -251 0
-209 237 251 0
209 -237 251 0
209 237 -251 0
-210 -238 -252 0
-210 238 252 0
210 -238 252 0
210 238 -252 0
-211 -233 -239 0
-211 233 239 0
211 -233 239 0
211 233 -239 0
-212 -234 -240 0
-212 234 240 0
212 -234 240 0
212 234 -240 0
-215 -235 -241 0
-215 235 241 0
215 -235 241 0
215 235 -241 0
-216 -236 -242 0
-216 236 242 0
216 -236 242 0
216 236 -242 0
-229 -243 -259 0
-229 243 259 0
229 -243 259 0
229 243 -259 0
-230 -244 -260 0
-230 244 260 0
230 -244 260 0
230 244 -260 0
-245 -255 -261 0
-245 255 261 0
245 -255 261 0
245 255 -261 0
-246 -256 -262 0
-246 256 262 0
246 -256 262 0
246 256 -262 0
-217 -247 -257 0
-217 247 257 0
217 -247 257 0
217 247 -257 0
-218 -248 -258 0
-218 248 258 0
218 -248 258 0
218 248 -258 0
-267 -269 -271 0
-267 269 271 0
267 -269 271 0
267 269 -271 0
-268 -270 -272 0
-268 270 272 0
268 -270 272 0
268 270 -272 0
-273 -275 -277 0
-273 275 277 0
273 -275 277 0
273 275 -277 0
-274 -276 -278 0
-274 276 278 0
274 -276 278 0
274 276 -278 0
-279 -281 -283 0
-279 281 283 0
279 -281 283 0
279 281 -283 0
-280 -282 -284 0
-280 282 284 0
280 -282 284 0
280 282 -284 0
-267 -285 -287 0
-267 285 287 0
267 -285 287 0
267 285 -287 0
-268 -286 -288 0
-268 286 288 0
268 -286 288 0
268 286 -288 0
-253 -273 -289 0
-253 273 289 0
253 -273 289 0
253 273 -289 0
-254 -274 -290 0
-254 274 290 0
254 -274 290 0
254 274 -290 0
-269 -275 -279 0
-269 275 279 0
269 -275 279 0
269 275 -279 0
-270 -276 -280 0
-270 276 280 0
270 -276 280 0
270 276 -280 0
-277 -285 -291 0
-277 285 291 0
277 -285 291 0
277 285 -291 0
-278 -286 -292 0
-278 286 292 0
278 -286 292 0
278 286 -292 0
-281 -287 -289 0
-281 287 289 0
281 -287 289 0
281 287 -289 0
-282 -288 -290 0
-282 288 290 0
282 -288 290 0
282 288 -290 0
-293 -295 -297 0
-293 295 297 0
293 -295 297 0
293 295 -297 0
-294 -296 -298 0
-294 296 298 0
294 -296 298 0
294 296 -298 0
-299 -301 -303 0
-299 301 303 0
299 -301 303 0
299 301 -303 0
-300 -302 -304 0
-300 302 304 0
300 -302 304 0
300 302 -304 0
-305 -307 -309 0
-305 307 309 0
305 -307 309 0
305 307 -309 0
-306 -308 -310 0
-306 308 310 0
306 -308 310 0
306 308 -310 0
-293 -311 -313 0
-293 311 313 0
293 -311 313 0
293 311 -313 0
-294 -312 -314 0
-294 312 314 0
294 -312 314 0
294 312 -314 0
-263 -299 -315 0
-263 299 315 0
263 -299 315 0
263 299 -315 0
-264 -300 -316 0
-264 300 316 0
264 -300 316 0
264 300 -316 0
-295 -301 -305 0
-295 301 305 0
295 -301 305 0
295 301 -305 0
-296 -302 -306 0
-296 302 306 0
296 -302 306 0
296 302 -306 0
-303 -311 -317 0
-303 311 317 0
303 -311 317 0
303 311 -317 0
-304 -312 -318 0
-304 312 318 0
304 -312 318 0
304 312 -318 0
-307 -313 -315 0
-307 313 315 0
307 -313 315 0
307 313 -315 0
-308 -314 -316 0
-308 314 316 0
308 -314 316 0
308 314 -316 0
-201 -319 -321 0
-201 319 321 0
201 -319 321 0
201 319 -321 0
-202 -320 -322 0
-202 320 322 0
202 -320 322 0
202 320 -322 0
-323 -325 -327 0
-323 325 327 0
323 -325 327 0
323 325 -327 0
-324 -326 -328 0
-324 326 328 0
324 -326 328 0
324 326 -328 0
-329 -331 -333 0
-329 331 333 0
329 -331 333 0
329 331 -333 0
-330 -332 -334 0
-330 332 334 0
330 -332 334 0
330 332 -334 0
-319 -335 -337 0
-319 335 337 0
319 -335 337 0
319 335 -337 0
-320 -336 -338 0
-320 336 338 0
320 -336 338 0
320 336 -338 0
-265 -323 -339 0
-265 323 339 0
265 -323 339 0
265 323 -339 0
-266 -324 -340 0
-266 324 340 0
266 -324 340 0
266 324 -340 0
-321 -325 -329 0
-321 325 329 0
321 -325 329 0
321 325 -329 0
-322 -326 -330 0
-322 326 330 0
322 -326 330 0
322 326 -330 0
-327 -335 -341 0
-327 335 341 0
327 -335 341 0
327 335 -341 0
-328 -336 -342 0
-328 336 342 0
328 -336 342 0
328 336 -342 0
-331 -337 -339 0
-331 337 339 0
331 -337 339 0
331 337 -339 0
-332 -338 -340 0
-332 338 340 0
332 -338 340 0
332 338 -340 0
-203 -343 -345 0
-203 343 345 0
203 -343 345 0
203 343 -345 0
-204 -344 -346 0
-204 344 346 0
204 -344 346 0
204 344 -346 0
-347 -349 -351 0
-347 349 351 0
347 -349 351 0
347 349 -351 0
-348 -350 -352 0
-348 350 352 0
348 -350 352 0
348 350 -352 0
-353 -355 -357 0
-353 355 357 0
353 -355 357 0
353 355 -357 0
-354 -356 -358 0
-354 356 358 0
354 -356 358 0
354 356 -358 0
-343 -359 -361 0
-343 359 361 0
343 -359 361 0
343 359 -361 0
-344 -360 -362 0
-344 360 362 0
344 -360 362 0
344 360 -362 0
-271 -347 -363 0
-271 347 363 0
271 -347 363 0
271 347 -363 0
-272 -348 -364 0
-272 348 364 0
272 -348 364 0
272 348 -364 0
-345 -349 -353 0
-345 349 353 0
345 -349 353 0
345 349 -353 0
-346 -350 -354 0
-346 350 354 0
346 -350 354 0
346 350 -354 0
-351 -359 -365 0
-351 359 365 0
351 -359 365 0
351 359 -365 0
-352 -360 -366 0
-352 360 366 0
352 -360 366 0
352 360 -366 0
-355 -361 -363 0
-355 361 363 0
355 -361 363 0
355 361 -363 0
-356 -362 -364 0
-356 362 364 0
356 -362 364 0
356 362 -364 0
-205 -367 -369 0
-205 367 369 0
205 -367 369 0
205 367 -369 0
-206 -368 -370 0
-206 368 370 0
206 -368 370 0
206 368 -370 0
-371 -373 -375 0
-371 373 375 0
371 -373 375 0
371 373 -375 0
-372 -374 -376 0
-372 374 376 0
372 -374 376 0
372 374 -376 0
-377 -379 -381 0
-377 379 381 0
377 -379 381 0
377 379 -381 0
-378 -380 -382 0
-378 380 382 0
378 -380 382 0
378 380 -382 0
-367 -383 -385 0
-367 383 385 0
367 -383 385 0
367 383 -385 0
-368 -384 -386 0
-368 384 386 0
368 -384 386 0
368 384 -386 0
-297 -371 -387 0
-297 371 387 0
297 -371 387 0
297 371 -387 0
-298 -372 -388 0
-298 372 388 0
298 -372 388 0
298 372 -388 0
-369 -373 -377 0
-369 373 377 0
369 -373 377 0
369 373 -377 0
-370 -374 -378 0
-370 374 378 0
370 -374 378 0
370 374 -378 0
-375 -383 -389 0
-375 383 389 0
375 -383 389 0
375 383 -389 0
-376 -384 -390 0
-376 384 390 0
376 -384 390 0
376 384 -390 0
-379 -385 -387 0
-379 385 387 0
379 -385 387 0
379 385 -387 0
-380 -386 -388 0
-380 386 388 0
380 -386 388 0
380 386 -388 0
-191 -283 -291 0
-191 283 291 0
191 -283 291 0
191 283 -291 0
-192 -284 -292 0
-192 284 292 0
192 -284 292 0
192 284 -292 0
-193 -309 -317 0
-193 309 317 0
193 -309 317 0
193 309 -317 0
-194 -310 -318 0
-194 310 318 0
194 -310 318 0
194 310 -318 0
-195 -333 -341 0
-195 333 341 0
195 -333 341 0
195 333 -341 0
-196 -334 -342 0
-196 334 342 0
196 -334 342 0
196 334 -342 0
-197 -357 -365 0
-197 357 365 0
197 -357 365 0
197 357 -365 0
-198 -358 -366 0
-198 358 366 0
198 -358 366 0
198 358 -366 0
-199 -381 -389 0
-199 381 389 0
199 -381 389 0
199 381 -389 0
-200 -382 -390 0
-200 382 390 0
200 -382 390 0
200 382 -390 0
-391 -1 0
-391 -2 0
391 1 2 0
-392 -3 0
-392 -4 0
392 3 4 0
-393 -5 0
-393 -6 0
393 5 6 0
-394 -7 0
-394 -8 0
394 7 8 0
-395 -9 0
-395 -10 0
395 9 10 0
-396 -11 0
-396 -12 0
396 11 12 0
-397 -13 0
-397 -14 0
397 13 14 0
-398 -15 0
-398 -16 0
398 15 16 0
-399 -17 0
-399 -18 0
399 17 18 0
-400 -19 0
-400 -20 0
400 19 20 0
-401 -21 0
-401 -22 0
401 21 22 0
-402 -23 0
-402 -24 0
402 23 24 0
-403 -25 0
-403 -26 0
403 25 26 0
-404 -27 0
-404 -28 0
404 27 28 0
-405 -29 0
-405 -30 0
405 29 30 0
-406 -31 0
-406 -32 0
406 31 32 0
-407 -33 0
-407 -34 0
407 33 34 0
-408 -35 0
-408 -36 0
408 35 36 0
-409 -37 0
-409 -38 0
409 37 38 0
-410 -39 0
-410 -40 0
410 39 40 0
-411 -41 0
-411 -42 0
411 41 42 0
-412 -43 0
-412 -44 0
412 43 44 0
-413 -45 0
-413 -46 0
413 45 46 0
-414 -47 0
-414 -48 0
414 47 48 0
-415 -49 0
-415 -50 0
415 49 50 0
-416 -51 0
-416 -52 0
416 51 52 0
-417 -53 0
-417 -54 0
417 53 54 0
-418 -55 0
-418 -56 0
418 55 56 0
-419 -57 0
-419 -58 0
419 57 58 0
-420 -59 0
-420 -60 0
420 59 60 0
-421 -61 0
-421 -62 0
421 61 62 0
-422 -63 0
-422 -64 0
422 63 64 0
-423 -65 0
-423 -66 0
423 65 66 0
-424 -67 0
-424 -68 0
424 67 68 0
-425 -69 0
-425 -70 0
425 69 70 0
-426 -71 0
-426 -72 0
426 71 72 0
-427 -73 0
-427 -74 0
427 73 74 0
-428 -75 0
-428 -76 0
428 75 76 0
-429 -77 0
-429 -78 0
429 77 78 0
-430 -79 0
-430 -80 0
430 79 80 0
-431 -81 0
-431 -82 0
431 81 82 0
-432 -83 0
-432 -84 0
432 83 84 0
-433 -85 0
-433 -86 0
433 85 86 0
-434 -87 0
-434 -88 0
434 87 88 0
-435 -89 0
-435 -90 0
435 89 90 0
-436 -91 0
-436 -92 0
436 91 92 0
-437 -93 0
-437 -94 0
437 93 94 0
-438 -95 0
-438 -96 0
438 95 96 0
-439 -97 0
-439 -98 0
439 97 98 0
-440 -99 0
-440 -100 0
440 99 100 0
-441 -101 0
-441 -102 0
441 101 102 0
-442 -103 0
-442 -104 0
442 103 104 0
-443 -105 0
-443 -106 0
443 105 106 0
-444 -107 0
-444 -108 0
444 107 108 0
-445 -109 0
-445 -110 0
445 109 110 0
-446 -111 0
-446 -112 0
446 111 112 0
-447 -113 0
-447 -114 0
447 113 114 0
-448 -115 0
-448 -116 0
448 115 116 0
-449 -117 0
-449 -118 0
449 117 118 0
-450 -119 0
-450 -120 0
450 119 120 0
-451 -121 0
-451 -122 0
451 121 122 0
-452 -123 0
-452 -124 0
452 123 124 0
-453 -125 0
-453 -126 0
453 125 126 0
-454 -127 0
-454 -128 0
454 127 128 0
-455 -129 0
-455 -130 0
455 129 130 0
-456 -131 0
-456 -132 0
456 131 132 0
-457 -133 0
-457 -134 0
457 133 134 0
-458 -135 0
-458 -136 0
458 135 136 0
-459 -137 0
-459 -138 0
459 137 138 0
-460 -139 0
-460 -140 0
460 139 140 0
-461 -141 0
-461 -142 0
461 141 142 0
-462 -143 0
-462 -144 0
462 143 144 0
-463 -145 0
-463 -146 0
463 145 146 0
-464 -147 0
-464 -148 0
464 147 148 0
-465 -149 0
-465 -150 0
465 149 150 0
-466 -151 0
-466 -152 0
466 151 152 0
-467 -153 0
-467 -154 0
467 153 154 0
-468 -155 0
-468 -156 0
468 155 156 0
-469 -157 0
-469 -158 0
469 157 158 0
-470 -159 0
-470 -160 0
470 159 160 0
-471 -161 0
-471 -162 0
471 161 162 0
-472 -163 0
-472 -164 0
472 163 164 0
-473 -165 0
-473 -166 0
473 165 166 0
-474 -167 0
-474 -168 0
474 167 168 0
-475 -169 0
-475 -170 0
475 169 170 0
-476 -171 0
-476 -172 0
476 171 172 0
-477 -173 0
-477 -174 0
477 173 174 0
-478 -175 0
-478 -176 0
478 175 176 0
-479 -177 0
-479 -178 0
479 177 178 0
-480 -179 0
-480 -180 0
480 179 180 0
-481 -181 0
-481 -182 0
481 181 182 0
-482 -183 0
-482 -184 0
482 183 184 0
-483 -185 0
-483 -186 0
483 185 186 0
-484 -187 0
-484 -188 0
484 187 188 0
-485 -189 0
-485 -190 0
485 189 190 0
-486 -191 0
-486 -192 0
486 191 192 0
-487 -193 0
-487 -194 0
487 193 194 0
-488 -195 0
-488 -196 0
488 195 196 0
-489 -197 0
-489 -198 0
489 197 198 0
-490 -199 0
-490 -200 0
490 199 200 0
-491 -201 0
-491 -202 0
491 201 202 0
-492 -203 0
-492 -204 0
492 203 204 0
-493 -205 0
-493 -206 0
493 205 206 0
-494 -207 0
-494 -208 0
494 207 208 0
-495 -209 0
-495 -210 0
495 209 210 0
-496 -211 0
-496 -212 0
496 211 212 0
-497 -213 0
-497 -214 0
497 213 214 0
-498 -215 0
-498 -216 0
498 215 216 0
-499 -217 0
-499 -218 0
499 217 218 0
-500 -219 0
-500 -220 0
500 219 220 0
-501 -221 0
-501 -222 0
501 221 222 0
-502 -223 0
-502 -224 0
502 223 224 0
-503 -225 0
-503 -226 0
503 225 226 0
-504 -227 0
-504 -228 0
504 227 228 0
-505 -229 0
-505 -230 0
505 229 230 0
-506 -231 0
-506 -232 0
506 231 232 0
-507 -233 0
-507 -234 0
507 233 234 0
-508 -235 0
-508 -236 0
508 235 236 0
-509 -237 0
-509 -238 0
509 237 238 0
-510 -239 0
-510 -240 0
510 239 240 0
-511 -241 0
-511 -242 0
511 241 242 0
-512 -243 0
-512 -244 0
512 243 244 0
-513 -245 0
-513 -246 0
513 245 246 0
-514 -247 0
-514 -248 0
514 247 248 0
-515 -249 0
-515 -250 0
515 249 250 0
-516 -251 0
-516 -252 0
516 251 252 0
-517 -253 0
-517 -254 0
517 253 254 0
-518 -255 0
-518 -256 0
518 255 256 0
-519 -257 0
-519 -258 0
519 257 258 0
-520 -259 0
-520 -260 0
520 259 260 0
-521 -261 0
-521 -262 0
521 261 262 0
-522 -263 0
-522 -264 0
522 263 264 0
-523 -265 0
-523 -266 0
523 265 266 0
-524 -267 0
-524 -268 0
524 267 268 0
-525 -269 0
-525 -270 0
525 269 270 0
-526 -271 0
-526 -272 0
526 271 272 0
-527 -273 0
-527 -274 0
527 273 274 0
-528 -275 0
-528 -276 0
528 275 276 0
-529 -277 0
-529 -278 0
529 277 278 0
-530 -279 0
-530 -280 0
530 279 280 0
-531 -281 0
-531 -282 0
531 281 282 0
-532 -283 0
-532 -284 0
532 283 284 0
-533 -285 0
-533 -286 0
533 285 286 0
-534 -287 0
-534 -288 0
534 287 288 0
-535 -289 0
-535 -290 0
535 289 290 0
-536 -291 0
-536 -292 0
536 291 292 0
-537 -293 0
-537 -294 0
537 293 294 0
-538 -295 0
-538 -296 0
538 295 296 0
-539 -297 0
-539 -298 0
539 297 298 0
-540 -299 0
-540 -300 0
540 299 300 0
-541 -301 0
-541 -302 0
541 301 302 0
-542 -303 0
-542 -304 0
542 303 304 0
-543 -305 0
-543 -306 0
543 305 306 0
-544 -307 0
-544 -308 0
544 307 308 0
-545 -309 0
-545 -310 0
545 309 310 0
-546 -311 0
-546 -312 0
546 311 312 0
-547 -313 0
-547 -314 0
547 313 314 0
-548 -315 0
-548 -316 0
548 315 316 0
-549 -317 0
-549 -318 0
549 317 318 0
-550 -319 0
-550 -320 0
550 319 320 0
-551 -321 0
-551 -322 0
551 321 322 0
-552 -323 0
-552 -324 0
552 323 324 0
-553 -325 0
-553 -326 0
553 325 326 0
-554 -327 0
-554 -328 0
554 327 328 0
-555 -329 0
-555 -330 0
555 329 330 0
-556 -331 0
-556 -332 0
556 331 332 0
-557 -333 0
-557 -334 0
557 333 334 0
-558 -335 0
-558 -336 0
558 335 336 0
-559 -337 0
-559 -338 0
559 337 338 0
-560 -339 0
-560 -340 0
560 339 340 0
-561 -341 0
-561 -342 0
561 341 342 0
-562 -343 0
-562 -344 0
562 343 344 0
-563 -345 0
-563 -346 0
563 345 346 0
-564 -347 0
-564 -348 0
564 347 348 0
-565 -349 0
-565 -350 0
565 349 350 0
-566 -351 0
-566 -352 0
566 351 352 0
-567 -353 0
-567 -354 0
567 353 354 0
-568 -355 0
-568 -356 0
568 355 356 0
-569 -357 0
-569 -358 0
569 357 358 0
-570 -359 0
-570 -360 0
570 359 360 0
-571 -361 0
-571 -362 0
571 361 362 0
-572 -363 0
-572 -364 0
572 363 364 0
-573 -365 0
-573 -366 0
573 365 366 0
-574 -367 0
-574 -368 0
574 367 368 0
-575 -369 0
-575 -370 0
575 369 370 0
-576 -371 0
-576 -372 0
576 371 372 0
-577 -373 0
-577 -374 0
577 373 374 0
-578 -375 0
-578 -376 0
578 375 376 0
-579 -377 0
-579 -378 0
579 377 378 0
-580 -379 0
-580 -380 0
580 379 380 0
-581 -381 0
-581 -382 0
581 381 382 0
-582 -383 0
-582 -384 0
582 383 384 0
-583 -385 0
-583 -386 0
583 385 386 0
-584 -387 0
-584 -388 0
584 387 388 0
-585 -389 0
-585 -390 0
585 389 390 0
-391 586 0
-392 587 0
-586 587 0
-392 -586 588 0
-393 589 0
-587 589 0
-588 590 0
-393 -587 590 0
-393 -588 591 0
-394 592 0
-589 592 0
-590 593 0
-591 594 0
-394 -589 593 0
-394 -590 594 0
-394 -591 595 0
-395 596 0
-592 596 0
-593 597 0
-594 598 0
-595 599 0
-395 -592 597 0
-395 -593 598 0
-395 -594 599 0
-395 -595 0
-396 600 0
-596 600 0
-597 601 0
-598 602 0
-599 603 0
-396 -596 601 0
-396 -597 602 0
-396 -598 603 0
-396 -599 0
-397 604 0
-600 604 0
-601 605 0
-602 606 0
-603 607 0
-397 -600 605 0
-397 -601 606 0
-397 -602 607 0
-397 -603 0
-398 608 0
-604 608 0
-605 609 0
-606 610 0
-607 611 0
-398 -604 609 0
-398 -605 610 0
-398 -606 611 0
-398 -607 0
-399 612 0
-608 612 0
-609 613 0
-610 614 0
-611 615 0
-399 -608 613 0
-399 -609 614 0
-399 -610 615 0
-399 -611 0
-400 616 0
-612 616 0
-613 617 0
-614 618 0
-615 619 0
-400 -612 617 0
-400 -613 618 0
-400 -614 619 0
-400 -615 0
-401 620 0
-616 620 0
-617 621 0
-618 622 0
-619 623 0
-401 -616 621 0
-401 -617 622 0
-401 -618 623 0
-401 -619 0
-402 624 0
-620 624 0
-621 625 0
-622 626 0
-623 627 0
-402 -620 625 0
-402 -621 626 0
-402 -622 627 0
-402 -623 0
-403 628 0
-624 628 0
-625 629 0
-626 630 0
-627 631 0
-403 -624 629 0
-403 -625 630 0
-403 -626 631 0
-403 -627 0
-404 632 0
-628 632 0
-629 633 0
-630 634 0
-631 635 0
-404 -628 633 0
-404 -629 634 0
-404 -630 635 0
-404 -631 0
-405 636 0
-632 636 0
-633 637 0
-634 638 0
-635 639 0
-405 -632 637 0
-405 -633 638 0
-405 -634 639 0
-405 -635 0
-406 640 0
-636 640 0
-637 641 0
-638 642 0
-639 643 0
-406 -636 641 0
-406 -637 642 0
-406 -638 643 0
-406 -639 0
-407 644 0
-640 644 0
-641 645 0
-642 646 0
-643 647 0
-407 -640 645 0
-407 -641 646 0
-407 -642 647 0
-407 -643 0
-408 648 0
-644 648 0
-645 649 0
-646 650 0
-647 651 0
-408 -644 649 0
-408 -645 650 0
-408 -646 651 0
-408 -647 0
-409 652 0
-648 652 0
-649 653 0
-650 654 0
-651 655 0
-409 -648 653 0
-409 -649 654 0
-409 -650 655 0
-409 -651 0
-410 656 0
-652 656 0
-653 657 0
-654 658 0
-655 659 0
-410 -652 657 0
-410 -653 658 0
-410 -654 659 0
-410 -655 0
-411 660 0
-656 660 0
-657 661 0
-658 662 0
-659 663 0
-411 -656 661 0
-411 -657 662 0
-411 -658 663 0
-411 -659 0
-412 664 0
-660 664 0
-661 665 0
-662 666 0
-663 667 0
-412 -660 665 0
-412 -661 666 0
-412 -662 667 0
-412 -663 0
-413 668 0
-664 668 0
-665 669 0
-666 670 0
-667 671 0
-413 -664 669 0
-413 -665 670 0
-413 -666 671 0
-413 -667 0
-414 672 0
-668 672 0
-669 673 0
-670 674 0
-671 675 0
-414 -668 673 0
-414 -669 674 0
-414 -670 675 0
-414 -671 0
-415 676 0
-672 676 0
-673 677 0
-674 678 0
-675 679 0
-415 -672 677 0
-415 -673 678 0
-415 -674 679 0
-415 -675 0
-416 680 0
-676 680 0
-677 681 0
-678 682 0
-679 683 0
-416 -676 681 0
-416 -677 682 0
-416 -678 683 0
-416 -679 0
-417 684 0
-680 684 0
-681 685 0
-682 686 0
-683 687 0
-417 -680 685 0
-417 -681 686 0
-417 -682 687 0
-417 -683 0
-418 688 0
-684 688 0
-685 689 0
-686 690 0
-687 691 0
-418 -684 689 0
-418 -685 690 0
-418 -686 691 0
-418 -687 0
-419 692 0
-688 692 0
-689 693 0
-690 694 0
-691 695 0
-419 -688 693 0
-419 -689 694 0
-419 -690 695 0
-419 -691 0
-420 696 0
-692 696 0
-693 697 0
-694 698 0
-695 699 0
-420 -692 697 0
-420 -693 698 0
-420 -694 699 0
-420 -695 0
-421 700 0
-696 700 0
-697 701 0
-698 702 0
-699 703 0
-421 -696 701 0
-421 -697 702 0
-421 -698 703 0
-421 -699 0
-422 704 0
-700 704 0
-701 705 0
-702 706 0
-703 707 0
-422 -700 705 0
-422 -701 706 0
-422 -702 707 0
-422 -703 0
-423 708 0
-704 708 0
-705 709 0
-706 710 0
-707 711 0
-423 -704 709 0
-423 -705 710 0
-423 -706 711 0
-423 -707 0
-424 712 0
-708 712 0
-709 713 0
-710 714 0
-711 715 0
-424 -708 713 0
-424 -709 714 0
-424 -710 715 0
-424 -711 0
-425 716 0
-712 716 0
-713 717 0
-714 718 0
-715 719 0
-425 -712 717 0
-425 -713 718 0
-425 -714 719 0
-425 -715 0
-426 720 0
-716 720 0
-717 721 0
-718 722 0
-719 723 0
-426 -716 721 0
-426 -717 722 0
-426 -718 723 0
-426 -719 0
-427 724 0
-720 724 0
-721 725 0
-722 726 0
-723 727 0
-427 -720 725 0
-427 -721 726 0
-427 -722 727 0
-427 -723 0
-428 728 0
-724 728 0
-725 729 0
-726 730 0
-727 731 0
-428 -724 729 0
-428 -725 730 0
-428 -726 731 0
-428 -727 0
-429 732 0
-728 732 0
-729 733 0
-730 734 0
-731 735 0
-429 -728 733 0
-429 -729 734 0
-429 -730 735 0
-429 -731 0
-430 736 0
-732 736 0
-733 737 0
-734 738 0
-735 739 0
-430 -732 737 0
-430 -733 738 0
-430 -734 739 0
-430 -735 0
-431 740 0
-736 740 0
-737 741 0
-738 742 0
-739 743 0
-431 -736 741 0
-431 -737 742 0
-431 -738 743 0
-431 -739 0
-432 744 0
-740 744 0
-741 745 0
-742 746 0
-743 747 0
-432 -740 745 0
-432 -741 746 0
-432 -742 747 0
-432 -743 0
-433 748 0
-744 748 0
-745 749 0
-746 750 0
-747 751 0
-433 -744 749 0
-433 -745 750 0
-433 -746 751 0
-433 -747 0
-434 752 0
-748 752 0
-749 753 0
-750 754 0
-751 755 0
-434 -748 753 0
-434 -749 754 0
-434 -750 755 0
-434 -751 0
-435 756 0
-752 756 0
-753 757 0
-754 758 0
-755 759 0
-435 -752 757 0
-435 -753 758 0
-435 -754 759 0
-435 -755 0
-436 760 0
-756 760 0
-757 761 0
-758 762 0
-759 763 0
-436 -756 761 0
-436 -757 762 0
-436 -758 763 0
-436 -759 0
-437 764 0
-760 764 0
-761 765 0
-762 766 0
-763 767 0
-437 -760 765 0
-437 -761 766 0
-437 -762 767 0
-437 -763 0
-438 768 0
-764 768 0
-765 769 0
-766 770 0
-767 771 0
-438 -764 769 0
-438 -765 770 0
-438 -766 771 0
-438 -767 0
-439 772 0
-768 772 0
-769 773 0
-770 774 0
-771 775 0
-439 -768 773 0
-439 -769 774 0
-439 -770 775 0
-439 -771 0
-440 776 0
-772 776 0
-773 777 0
-774 778 0
-775 779 0
-440 -772 777 0
-440 -773 778 0
-440 -774 779 0
-440 -775 0
-441 780 0
-776 780 0
-777 781 0
-778 782 0
-779 783 0
-441 -776 781 0
-441 -777 782 0
-441 -778 783 0
-441 -779 0
-442 784 0
-780 784 0
-781 785 0
-782 786 0
-783 787 0
-442 -780 785 0
-442 -781 786 0
-442 -782 787 0
-442 -783 0
-443 788 0
-784 788 0
-785 789 0
-786 790 0
-787 791 0
-443 -784 789 0
-443 -785 790 0
-443 -786 791 0
-443 -787 0
-444 792 0
-788 792 0
-789 793 0
-790 794 0
-791 795 0
-444 -788 793 0
-444 -789 794 0
-444 -790 795 0
-444 -791 0
-445 796 0
-792 796 0
-793 797 0
-794 798 0
-795 799 0
-445 -792 797 0
-445 -793 798 0
-445 -794 799 0
-445 -795 0
-446 800 0
-796 800 0
-797 801 0
-798 802 0
-799 803 0
-446 -796 801 0
-446 -797 802 0
-446 -798 803 0
-446 -799 0
-447 804 0
-800 804 0
-801 805 0
-802 806 0
-803 807 0
-447 -800 805 0
-447 -801 806 0
-447 -802 807 0
-447 -803 0
-448 808 0
-804 808 0
-805 809 0
-806 810 0
-807 811 0
-448 -804 809 0
-448 -805 810 0
-448 -806 811 0
-448 -807 0
-449 812 0
-808 812 0
-809 813 0
-810 814 0
-811 815 0
-449 -808 813 0
-449 -809 814 0
-449 -810 815 0
-449 -811 0
-450 816 0
-812 816 0
-813 817 0
-814 818 0
-815 819 0
-450 -812 817 0
-450 -813 818 0
-450 -814 819 0
-450 -815 0
-451 820 0
-816 820 0
-817 821 0
-818 822 0
-819 823 0
-451 -816 821 0
-451 -817 822 0
-451 -818 823 0
-451 -819 0
-452 824 0
-820 824 0
-821 825 0
-822 826 0
-823 827 0
-452 -820 825 0
-452 -821 826 0
-452 -822 827 0
-452 -823 0
-453 828 0
-824 828 0
-825 829 0
-826 830 0
-827 831 0
-453 -824 829 0
-453 -825 830 0
-453 -826 831 0
-453 -827 0
-454 832 0
-828 832 0
-829 833 0
-830 834 0
-831 835 0
-454 -828 833 0
-454 -829 834 0
-454 -830 835 0
-454 -831 0
-455 836 0
-832 836 0
-833 837 0
-834 838 0
-835 839 0
-455 -832 837 0
-455 -833 838 0
-455 -834 839 0
-455 -835 0
-456 840 0
-836 840 0
-837 841 0
-838 842 0
-839 843 0
-456 -836 841 0
-456 -837 842 0
-456 -838 843 0
-456 -839 0
-457 844 0
-840 844 0
-841 845 0
-842 846 0
-843 847 0
-457 -840 845 0
-457 -841 846 0
-457 -842 847 0
-457 -843 0
-458 848 0
-844 848 0
-845 849 0
-846 850 0
-847 851 0
-458 -844 849 0
-458 -845 850 0
-458 -846 851 0
-458 -847 0
-459 852 0
-848 852 0
-849 853 0
-850 854 0
-851 855 0
-459 -848 853 0
-459 -849 854 0
-459 -850 855 0
-459 -851 0
-460 856 0
-852 856 0
-853 857 0
-854 858 0
-855 859 0
-460 -852 857 0
-460 -853 858 0
-460 -854 859 0
-460 -855 0
-461 860 0
-856 860 0
-857 861 0
-858 862 0
-859 863 0
-461 -856 861 0
-461 -857 862 0
-461 -858 863 0
-461 -859 0
-462 864 0
-860 864 0
-861 865 0
-862 866 0
-863 867 0
-462 -860 865 0
-462 -861 866 0
-462 -862 867 0
-462 -863 0
-463 868 0
-864 868 0
-865 869 0
-866 870 0
-867 871 0
-463 -864 869 0
-463 -865 870 0
-463 -866 871 0
-463 -867 0
-464 872 0
-868 872 0
-869 873 0
-870 874 0
-871 875 0
-464 -868 873 0
-464 -869 874 0
-464 -870 875 0
-464 -871 0
-465 876 0
-872 876 0
-873 877 0
-874 878 0
-875 879 0
-465 -872 877 0
-465 -873 878 0
-465 -874 879 0
-465 -875 0
-466 880 0
-876 880 0
-877 881 0
-878 882 0
-879 883 0
-466 -876 881 0
-466 -877 882 0
-466 -878 883 0
-466 -879 0
-467 884 0
-880 884 0
-881 885 0
-882 886 0
-883 887 0
-467 -880 885 0
-467 -881 886 0
-467 -882 887 0
-467 -883 0
-468 888 0
-884 888 0
-885 889 0
-886 890 0
-887 891 0
-468 -884 889 0
-468 -885 890 0
-468 -886 891 0
-468 -887 0
-469 892 0
-888 892 0
-889 893 0
-890 894 0
-891 895 0
-469 -888 893 0
-469 -889 894 0
-469 -890 895 0
-469 -891 0
-470 896 0
-892 896 0
-893 897 0
-894 898 0
-895 899 0
-470 -892 897 0
-470 -893 898 0
-470 -894 899 0
-470 -895 0
-471 900 0
-896 900 0
-897 901 0
-898 902 0
-899 903 0
-471 -896 901 0
-471 -897 902 0
-471 -898 903 0
-471 -899 0
-472 904 0
-900 904 0
-901 905 0
-902 906 0
-903 907 0
-472 -900 905 0
-472 -901 906 0
-472 -902 907 0
-472 -903 0
-473 908 0
-904 908 0
-905 909 0
-906 910 0
-907 911 0
-473 -904 909 0
-473 -905 910 0
-473 -906 911 0
-473 -907 0
-474 912 0
-908 912 0
-909 913 0
-910 914 0
-911 915 0
-474 -908 913 0
-474 -909 914 0
-474 -910 915 0
-474 -911 0
-475 916 0
-912 916 0
-913 917 0
-914 918 0
-915 919 0
-475 -912 917 0
-475 -913 918 0
-475 -914 919 0
-475 -915 0
-476 920 0
-916 920 0
-917 921 0
-918 922 0
-919 923 0
-476 -916 921 0
-476 -917 922 0
-476 -918 923 0
-476 -919 0
-477 924 0
-920 924 0
-921 925 0
-922 926 0
-923 927 0
-477 -920 925 0
-477 -921 926 0
-477 -922 927 0
-477 -923 0
-478 928 0
-924 928 0
-925 929 0
-926 930 0
-927 931 0
-478 -924 929 0
-478 -925 930 0
-478 -926 931 0
-478 -927 0
-479 932 0
-928 932 0
-929 933 0
-930 934 0
-931 935 0
-479 -928 933 0
-479 -929 934 0
-479 -930 935 0
-479 -931 0
-480 936 0
-932 936 0
-933 937 0
-934 938 0
-935 939 0
-480 -932 937 0
-480 -933 938 0
-480 -934 939 0
-480 -935 0
-481 940 0
-936 940 0
-937 941 0
-938 942 0
-939 943 0
-481 -936 941 0
-481 -937 942 0
-481 -938 943 0
-481 -939 0
-482 944 0
-940 944 0
-941 945 0
-942 946 0
-943 947 0
-482 -940 945 0
-482 -941 946 0
-482 -942 947 0
-482 -943 0
-483 948 0
-944 948 0
-945 949 0
-946 950 0
-947 951 0
-483 -944 949 0
-483 -945 950 0
-483 -946 951 0
-483 -947 0
-484 952 0
-948 952 0
-949 953 0
-950 954 0
-951 955 0
-484 -948 953 0
-484 -949 954 0
-484 -950 955 0
-484 -951 0
-485 956 0
-952 956 0
-953 957 0
-954 958 0
-955 959 0
-485 -952 957 0
-485 -953 958 0
-485 -954 959 0
-485 -955 0
-486 960 0
-956 960 0
-957 961 0
-958 962 0
-959 963 0
-486 -956 961 0
-486 -957 962 0
-486 -958 963 0
-486 -959 0
-487 964 0
-960 964 0
-961 965 0
-962 966 0
-963 967 0
-487 -960 965 0
-487 -961 966 0
-487 -962 967 0
-487 -963 0
-488 968 0
-964 968 0
-965 969 0
-966 970 0
-967 971 0
-488 -964 969 0
-488 -965 970 0
-488 -966 971 0
-488 -967 0
-489 972 0
-968 972 0
-969 973 0
-970 974 0
-971 975 0
-489 -968 973 0
-489 -969 974 0
-489 -970 975 0
-489 -971 0
-490 976 0
-972 976 0
-973 977 0
-974 978 0
-975 979 0
-490 -972 977 0
-490 -973 978 0
-490 -974 979 0
-490 -975 0
-491 980 0
-976 980 0
-977 981 0
-978 982 0
-979 983 0
-491 -976 981 0
-491 -977 982 0
-491 -978 983 0
-491 -979 0
-492 984 0
-980 984 0
-981 985 0
-982 986 0
-983 987 0
-492 -980 985 0
-492 -981 986 0
-492 -982 987 0
-492 -983 0
-493 988 0
-984 988 0
-985 989 0
-986 990 0
-987 991 0
-493 -984 989 0
-493 -985 990 0
-493 -986 991 0
-493 -987 0
-494 992 0
-988 992 0
-989 993 0
-990 994 0
-991 995 0
-494 -988 993 0
-494 -989 994 0
-494 -990 995 0
-494 -991 0
-495 996 0
-992 996 0
-993 997 0
-994 998 0
-995 999 0
-495 -992 997 0
-495 -993 998 0
-495 -994 999 0
-495 -995 0
-496 1000 0
-996 1000 0
-997 1001 0
-998 1002 0
-999 1003 0
-496 -996 1001 0
-496 -997 1002 0
-496 -998 1003 0
-496 -999 0
-497 1004 0
-1000 1004 0
-1001 1005 0
-1002 1006 0
-1003 1007 0
-497 -1000 1005 0
-497 -1001 1006 0
-497 -1002 1007 0
-497 -1003 0
-498 1008 0
-1004 1008 0
-1005 1009 0
-1006 1010 0
-1007 1011 0
-498 -1004 1009 0
-498 -1005 1010 0
-498 -1006 1011 0
-498 -1007 0
-499 1012 0
-1008 1012 0
-1009 1013 0
-1010 1014 0
-1011 1015 0
-499 -1008 1013 0
-499 -1009 1014 0
-499 -1010 1015 0
-499 -1011 0
-500 1016 0
-1012 1016 0
-1013 1017 0
-1014 1018 0
-1015 1019 0
-500 -1012 1017 0
-500 -1013 1018 0
-500 -1014 1019 0
-500 -1015 0
-501 1020 0
-1016 1020 0
-1017 1021 0
-1018 1022 0
-1019 1023 0
-501 -1016 1021 0
-501 -1017 1022 0
-501 -1018 1023 0
-501 -1019 0
-502 1024 0
-1020 1024 0
-1021 1025 0
-1022 1026 0
-1023 1027 0
-502 -1020 1025 0
-502 -1021 1026 0
-502 -1022 1027 0
-502 -1023 0
-503 1028 0
-1024 1028 0
-1025 1029 0
-1026 1030 0
-1027 1031 0
-503 -1024 1029 0
-503 -1025 1030 0
-503 -1026 1031 0
-503 -1027 0
-504 1032 0
-1028 1032 0
-1029 1033 0
-1030 1034 0
-1031 1035 0
-504 -1028 1033 0
-504 -1029 1034 0
-504 -1030 1035 0
-504 -1031 0
-505 1036 0
-1032 1036 0
-1033 1037 0
-1034 1038 0
-1035 1039 0
-505 -1032 1037 0
-505 -1033 1038 0
-505 -1034 1039 0
-505 -1035 0
-506 1040 0
-1036 1040 0
-1037 1041 0
-1038 1042 0
-1039 1043 0
-506 -1036 1041 0
-506 -1037 1042 0
-506 -1038 1043 0
-506 -1039 0
-507 1044 0
-1040 1044 0
-1041 1045 0
-1042 1046 0
-1043 1047 0
-507 -1040 1045 0
-507 -1041 1046 0
-507 -1042 1047 0
-507 -1043 0
-508 1048 0
-1044 1048 0
-1045 1049 0
-1046 1050 0
-1047 1051 0
-508 -1044 1049 0
-508 -1045 1050 0
-508 -1046 1051 0
-508 -1047 0
-509 1052 0
-1048 1052 0
-1049 1053 0
-1050 1054 0
-1051 1055 0
-509 -1048 1053 0
-509 -1049 1054 0
-509 -1050 1055 0
-509 -1051 0
-510 1056 0
-1052 1056 0
-1053 1057 0
-1054 1058 0
-1055 1059 0
-510 -1052 1057 0
-510 -1053 1058 0
-510 -1054 1059 0
-510 -1055 0
-511 1060 0
-1056 1060 0
-1057 1061 0
-1058 1062 0
-1059 1063 0
-511 -1056 1061 0
-511 -1057 1062 0
-511 -1058 1063 0
-511 -1059 0
-512 1064 0
-1060 1064 0
-1061 1065 0
-1062 1066 0
-1063 1067 0
-512 -1060 1065 0
-512 -1061 1066 0
-512 -1062 1067 0
-512 -1063 0
-513 1068 0
-1064 1068 0
-1065 1069 0
-1066 1070 0
-1067 1071 0
-513 -1064 1069 0
-513 -1065 1070 0
-513 -1066 1071 0
-513 -1067 0
-514 1072 0
-1068 1072 0
-1069 1073 0
-1070 1074 0
-1071 1075 0
-514 -1068 1073 0
-514 -1069 1074 0
-514 -1070 1075 0
-514 -1071 0
-515 1076 0
-1072 1076 0
-1073 1077 0
-1074 1078 0
-1075 1079 0
-515 -1072 1077 0
-515 -1073 1078 0
-515 -1074 1079 0
-515 -1075 0
-516 1080 0
-1076 1080 0
-1077 1081 0
-1078 1082 0
-1079 1083 0
-516 -1076 1081 0
-516 -1077 1082 0
-516 -1078 1083 0
-516 -1079 0
-517 1084 0
-1080 1084 0
-1081 1085 0
-1082 1086 0
-1083 1087 0
-517 -1080 1085 0
-517 -1081 1086 0
-517 -1082 1087 0
-517 -1083 0
-518 1088 0
-1084 1088 0
-1085 1089 0
-1086 1090 0
-1087 1091 0
-518 -1084 1089 0
-518 -1085 1090 0
-518 -1086 1091 0
-518 -1087 0
-519 1092 0
-1088 1092 0
-1089 1093 0
-1090 1094 0
-1091 1095 0
-519 -1088 1093 0
-519 -1089 1094 0
-519 -1090 1095 0
-519 -1091 0
-520 1096 0
-1092 1096 0
-1093 1097 0
-1094 1098 0
-1095 1099 0
-520 -1092 1097 0
-520 -1093 1098 0
-520 -1094 1099 0
-520 -1095 0
-521 1100 0
-1096 1100 0
-1097 1101 0
-1098 1102 0
-1099 1103 0
-521 -1096 1101 0
-521 -1097 1102 0
-521 -1098 1103 0
-521 -1099 0
-522 1104 0
-1100 1104 0
-1101 1105 0
-1102 1106 0
-1103 1107 0
-522 -1100 1105 0
-522 -1101 1106 0
-522 -1102 1107 0
-522 -1103 0
-523 1108 0
-1104 1108 0
-1105 1109 0
-1106 1110 0
-1107 1111 0
-523 -1104 1109 0
-523 -1105 1110 0
-523 -1106 1111 0
-523 -1107 0
-524 1112 0
-1108 1112 0
-1109 1113 0
-1110 1114 0
-1111 1115 0
-524 -1108 1113 0
-524 -1109 1114 0
-524 -1110 1115 0
-524 -1111 0
-525 1116 0
-1112 1116 0
-1113 1117 0
-1114 1118 0
-1115 1119 0
-525 -1112 1117 0
-525 -1113 1118 0
-525 -1114 1119 0
-525 -1115 0
-526 1120 0
-1116 1120 0
-1117 1121 0
-1118 1122 0
-1119 1123 0
-526 -1116 1121 0
-526 -1117 1122 0
-526 -1118 1123 0
-526 -1119 0
-527 1124 0
-1120 1124 0
-1121 1125 0
-1122 1126 0
-1123 1127 0
-527 -1120 1125 0
-527 -1121 1126 0
-527 -1122 1127 0
-527 -1123 0
-528 1128 0
-1124 1128 0
-1125 1129 0
-1126 1130 0
-1127 1131 0
-528 -1124 1129 0
-528 -1125 1130 0
-528 -1126 1131 0
-528 -1127 0
-529 1132 0
-1128 1132 0
-1129 1133 0
-1130 1134 0
-1131 1135 0
-529 -1128 1133 0
-529 -1129 1134 0
-529 -1130 1135 0
-529 -1131 0
-530 1136 0
-1132 1136 0
-1133 1137 0
-1134 1138 0
-1135 1139 0
-530 -1132 1137 0
-530 -1133 1138 0
-530 -1134 1139 0
-530 -1135 0
-531 1140 0
-1136 1140 0
-1137 1141 0
-1138 1142 0
-1139 1143 0
-531 -1136 1141 0
-531 -1137 1142 0
-531 -1138 1143 0
-531 -1139 0
-532 1144 0
-1140 1144 0
-1141 1145 0
-1142 1146 0
-1143 1147 0
-532 -1140 1145 0
-532 -1141 1146 0
-532 -1142 1147 0
-532 -1143 0
-533 1148 0
-1144 1148 0
-1145 1149 0
-1146 1150 0
-1147 1151 0
-533 -1144 1149 0
-533 -1145 1150 0
-533 -1146 1151 0
-533 -1147 0
-534 1152 0
-1148 1152 0
-1149 1153 0
-1150 1154 0
-1151 1155 0
-534 -1148 1153 0
-534 -1149 1154 0
-534 -1150 1155 0
-534 -1151 0
-535 1156 0
-1152 1156 0
-1153 1157 0
-1154 1158 0
-1155 1159 0
-535 -1152 1157 0
-535 -1153 1158 0
-535 -1154 1159 0
-535 -1155 0
-536 1160 0
-1156 1160 0
-1157 1161 0
-1158 1162 0
-1159 1163 0
-536 -1156 1161 0
-536 -1157 1162 0
-536 -1158 1163 0
-536 -1159 0
-537 1164 0
-1160 1164 0
-1161 1165 0
-1162 1166 0
-1163 1167 0
-537 -1160 1165 0
-537 -1161 1166 0
-537 -1162 1167 0
-537 -1163 0
-538 1168 0
-1164 1168 0
-1165 1169 0
-1166 1170 0
-1167 1171 0
-538 -1164 1169 0
-538 -1165 1170 0
-538 -1166 1171 0
-538 -1167 0
-539 1172 0
-1168 1172 0
-1169 1173 0
-1170 1174 0
-1171 1175 0
-539 -1168 1173 0
-539 -1169 1174 0
-539 -1170 1175 0
-539 -1171 0
-540 1176 0
-1172 1176 0
-1173 1177 0
-1174 1178 0
-1175 1179 0
-540 -1172 1177 0
-540 -1173 1178 0
-540 -1174 1179 0
-540 -1175 0
-541 1180 0
-1176 1180 0
-1177 1181 0
-1178 1182 0
-1179 1183 0
-541 -1176 1181 0
-541 -1177 1182 0
-541 -1178 1183 0
-541 -1179 0
-542 1184 0
-1180 1184 0
-1181 1185 0
-1182 1186 0
-1183 1187 0
-542 -1180 1185 0
-542 -1181 1186 0
-542 -1182 1187 0
-542 -1183 0
-543 1188 0
-1184 1188 0
-1185 1189 0
-1186 1190 0
-1187 1191 0
-543 -1184 1189 0
-543 -1185 1190 0
-543 -1186 1191 0
-543 -1187 0
-544 1192 0
-1188 1192 0
-1189 1193 0
-1190 1194 0
-1191 1195 0
-544 -1188 1193 0
-544 -1189 1194 0
-544 -1190 1195 0
-544 -1191 0
-545 1196 0
-1192 1196 0
-1193 1197 0
-1194 1198 0
-1195 1199 0
-545 -1192 1197 0
-545 -1193 1198 0
-545 -1194 1199 0
-545 -1195 0
-546 1200 0
-1196 1200 0
-1197 1201 0
-1198 1202 0
-1199 1203 0
-546 -1196 1201 0
-546 -1197 1202 0
-546 -1198 1203 0
-546 -1199 0
-547 1204 0
-1200 1204 0
-1201 1205 0
-1202 1206 0
-1203 1207 0
-547 -1200 1205 0
-547 -1201 1206 0
-547 -1202 1207 0
-547 -1203 0
-548 1208 0
-1204 1208 0
-1205 1209 0
-1206 1210 0
-1207 1211 0
-548 -1204 1209 0
-548 -1205 1210 0
-548 -1206 1211 0
-548 -1207 0
-549 1212 0
-1208 1212 0
-1209 1213 0
-1210 1214 0
-1211 1215 0
-549 -1208 1213 0
-549 -1209 1214 0
-549 -1210 1215 0
-549 -1211 0
-550 1216 0
-1212 1216 0
-1213 1217 0
-1214 1218 0
-1215 1219 0
-550 -1212 1217 0
-550 -1213 1218 0
-550 -1214 1219 0
-550 -1215 0
-551 1220 0
-1216 1220 0
-1217 1221 0
-1218 1222 0
-1219 1223 0
-551 -1216 1221 0
-551 -1217 1222 0
-551 -1218 1223 0
-551 -1219 0
-552 1224 0
-1220 1224 0
-1221 1225 0
-1222 1226 0
-1223 1227 0
-552 -1220 1225 0
-552 -1221 1226 0
-552 -1222 1227 0
-552 -1223 0
-553 1228 0
-1224 1228 0
-1225 1229 0
-1226 1230 0
-1227 1231 0
-553 -1224 1229 0
-553 -1225 1230 0
-553 -1226 1231 0
-553 -1227 0
-554 1232 0
-1228 1232 0
-1229 1233 0
-1230 1234 0
-1231 1235 0
-554 -1228 1233 0
-554 -1229 1234 0
-554 -1230 1235 0
-554 -1231 0
-555 1236 0
-1232 1236 0
-1233 1237 0
-1234 1238 0
-1235 1239 0
-555 -1232 1237 0
-555 -1233 1238 0
-555 -1234 1239 0
-555 -1235 0
-556 1240 0
-1236 1240 0
-1237 1241 0
-1238 1242 0
-1239 1243 0
-556 -1236 1241 0
-556 -1237 1242 0
-556 -1238 1243 0
-556 -1239 0
-557 1244 0
-1240 1244 0
-1241 1245 0
-1242 1246 0
-1243 1247 0
-557 -1240 1245 0
-557 -1241 1246 0
-557 -1242 1247 0
-557 -1243 0
-558 1248 0
-1244 1248 0
-1245 1249 0
-1246 1250 0
-1247 1251 0
-558 -1244 1249 0
-558 -1245 1250 0
-558 -1246 1251 0
-558 -1247 0
-559 1252 0
-1248 1252 0
-1249 1253 0
-1250 1254 0
-1251 1255 0
-559 -1248 1253 0
-559 -1249 1254 0
-559 -1250 1255 0
-559 -1251 0
-560 1256 0
-1252 1256 0
-1253 1257 0
-1254 1258 0
-1255 1259 0
-560 -1252 1257 0
-560 -1253 1258 0
-560 -1254 1259 0
-560 -1255 0
-561 1260 0
-1256 1260 0
-1257 1261 0
-1258 1262 0
-1259 1263 0
-561 -1256 1261 0
-561 -1257 1262 0
-561 -1258 1263 0
-561 -1259 0
-562 1264 0
-1260 1264 0
-1261 1265 0
-1262 1266 0
-1263 1267 0
-562 -1260 1265 0
-562 -1261 1266 0
-562 -1262 1267 0
-562 -1263 0
-563 1268 0
-1264 1268 0
-1265 1269 0
-1266 1270 0
-1267 1271 0
-563 -1264 1269 0
-563 -1265 1270 0
-563 -1266 1271 0
-563 -1267 0
-564 1272 0
-1268 1272 0
-1269 1273 0
-1270 1274 0
-1271 1275 0
-564 -1268 1273 0
-564 -1269 1274 0
-564 -1270 1275 0
-564 -1271 0
-565 1276 0
-1272 1276 0
-1273 1277 0
-1274 1278 0
-1275 1279 0
-565 -1272 1277 0
-565 -1273 1278 0
-565 -1274 1279 0
-565 -1275 0
-566 1280 0
-1276 1280 0
-1277 1281 0
-1278 1282 0
-1279 1283 0
-566 -1276 1281 0
-566 -1277 1282 0
-566 -1278 1283 0
-566 -1279 0
-567 1284 0
-1280 1284 0
-1281 1285 0
-1282 1286 0
-1283 1287 0
-567 -1280 1285 0
-567 -1281 1286 0
-567 -1282 1287 0
-567 -1283 0
-568 1288 0
-1284 1288 0
-1285 1289 0
-1286 1290 0
-1287 1291 0
-568 -1284 1289 0
-568 -1285 1290 0
-568 -1286 1291 0
-568 -1287 0
-569 1292 0
-1288 1292 0
-1289 1293 0
-1290 1294 0
-1291 1295 0
-569 -1288 1293 0
-569 -1289 1294 0
-569 -1290 1295 0
-569 -1291 0
-570 1296 0
-1292 1296 0
-1293 1297 0
-1294 1298 0
-1295 1299 0
-570 -1292 1297 0
-570 -1293 1298 0
-570 -1294 1299 0
-570 -1295 0
-571 1300 0
-1296 1300 0
-1297 1301 0
-1298 1302 0
-1299 1303 0
-571 -1296 1301 0
-571 -1297 1302 0
-571 -1298 1303 0
-571 -1299 0
-572 1304 0
-1300 1304 0
-1301 1305 0
-1302 1306 0
-1303 1307 0
-572 -1300 1305 0
-572 -1301 1306 0
-572 -1302 1307 0
-572 -1303 0
-573 1308 0
-1304 1308 0
-1305 1309 0
-1306 1310 0
-1307 1311 0
-573 -1304 1309 0
-573 -1305 1310 0
-573 -1306 1311 0
-573 -1307 0
-574 1312 0
-1308 1312 0
-1309 1313 0
-1310 1314 0
-1311 1315 0
-574 -1308 1313 0
-574 -1309 1314 0
-574 -1310 1315 0
-574 -1311 0
-575 1316 0
-1312 1316 0
-1313 1317 0
-1314 1318 0
-1315 1319 0
-575 -1312 1317 0
-575 -1313 1318 0
-575 -1314 1319 0
-575 -1315 0
-576 1320 0
-1316 1320 0
-1317 1321 0
-1318 1322 0
-1319 1323 0
-576 -1316 1321 0
-576 -1317 1322 0
-576 -1318 1323 0
-576 -1319 0
-577 1324 0
-1320 1324 0
-1321 1325 0
-1322 1326 0
-1323 1327 0
-577 -1320 1325 0
-577 -1321 1326 0
-577 -1322 1327 0
-577 -1323 0
-578 1328 0
-1324 1328 0
-1325 1329 0
-1326 1330 0
-1327 1331 0
-578 -1324 1329 0
-578 -1325 1330 0
-578 -1326 1331 0
-578 -1327 0
-579 1332 0
-1328 1332 0
-1329 1333 0
-1330 1334 0
-1331 1335 0
-579 -1328 1333 0
-579 -1329 1334 0
-579 -1330 1335 0
-579 -1331 0
-580 1336 0
-1332 1336 0
-1333 1337 0
-1334 1338 0
-1335 1339 0
-580 -1332 1337 0
-580 -1333 1338 0
-580 -1334 1339 0
-580 -1335 0
-581 1340 0
-1336 1340 0
-1337 1341 0
-1338 1342 0
-1339 1343 0
-581 -1336 1341 0
-581 -1337 1342 0
-581 -1338 1343 0
-581 -1339 0
-582 1344 0
-1340 1344 0
-1341 1345 0
-1342 1346 0
-1343 1347 0
-582 -1340 1345 0
-582 -1341 1346 0
-582 -1342 1347 0
-582 -1343 0
-583 1348 0
-1344 1348 0
-1345 1349 0
-1346 1350 0
-1347 1351 0
-583 -1344 1349 0
-583 -1345 1350 0
-583 -1346 1351 0
-583 -1347 0
-584 1352 0
-1348 1352 0
-1349 1353 0
-1350 1354 0
-1351 1355 0
-584 -1348 1353 0
-584 -1349 1354 0
-584 -1350 1355 0
-584 -1351 0
-585 1356 0
-1352 1356 0
-1353 1357 0
-1354 1358 0
-1355 1359 0
-585 -1352 1357 0
-585 -1353 1358 0
-585 -1354 1359 0
-585 -1355 0
