p cnf 300 1188
1 4 -13 0
-1 -4 -13 0
1 -4 13 0
-1 4 13 0
5 8 -14 0
-5 -8 -14 0
5 -8 14 0
-5 8 14 0
9 12 -15 0
-9 -12 -15 0
9 -12 15 0
-9 12 15 0
13 14 -16 0
-13 -14 -16 0
13 -14 16 0
-13 14 16 0
13 15 -17 0
-13 -15 -17 0
13 -15 17 0
-13 15 17 0
14 15 -18 0
-14 -15 -18 0
14 -15 18 0
-14 15 18 0
16 17 18 0
1 4 -19 0
-1 -4 -19 0
1 -4 19 0
-1 4 19 0
5 7 -20 0
-5 -7 -20 0
5 -7 20 0
-5 7 20 0
20 8 -21 0
-20 -8 -21 0
20 -8 21 0
-20 8 21 0
9 11 -22 0
-9 -11 -22 0
9 -11 22 0
-9 11 22 0
22 12 -23 0
-22 -12 -23 0
22 -12 23 0
-22 12 23 0
19 21 -24 0
-19 -21 -24 0
19 -21 24 0
-19 21 24 0
19 23 -25 0
-19 -23 -25 0
19 -23 25 0
-19 23 25 0
21 23 -26 0
-21 -23 -26 0
21 -23 26 0
-21 23 26 0
24 25 26 0
1 4 -27 0
-1 -4 -27 0
1 -4 27 0
-1 4 27 0
6 7 -28 0
-6 -7 -28 0
6 -7 28 0
-6 7 28 0
10 11 -29 0
-10 -11 -29 0
10 -11 29 0
-10 11 29 0
27 28 -30 0
-27 -28 -30 0
27 -28 30 0
-27 28 30 0
27 29 -31 0
-27 -29 -31 0
27 -29 31 0
-27 29 31 0
28 29 -32 0
-28 -29 -32 0
28 -29 32 0
-28 29 32 0
30 31 32 0
1 4 -33 0
-1 -4 -33 0
1 -4 33 0
-1 4 33 0
6 7 -34 0
-6 -7 -34 0
6 -7 34 0
-6 7 34 0
34 8 -35 0
-34 -8 -35 0
34 -8 35 0
-34 8 35 0
10 11 -36 0
-10 -11 -36 0
10 -11 36 0
-10 11 36 0
36 12 -37 0
-36 -12 -37 0
36 -12 37 0
-36 12 37 0
33 35 -38 0
-33 -35 -38 0
33 -35 38 0
-33 35 38 0
33 37 -39 0
-33 -37 -39 0
33 -37 39 0
-33 37 39 0
35 37 -40 0
-35 -37 -40 0
35 -37 40 0
-35 37 40 0
38 39 40 0
1 4 -41 0
-1 -4 -41 0
1 -4 41 0
-1 4 41 0
5 6 -42 0
-5 -6 -42 0
5 -6 42 0
-5 6 42 0
42 7 -43 0
-42 -7 -43 0
42 -7 43 0
-42 7 43 0
9 10 -44 0
-9 -10 -44 0
9 -10 44 0
-9 10 44 0
44 11 -45 0
-44 -11 -45 0
44 -11 45 0
-44 11 45 0
41 43 -46 0
-41 -43 -46 0
41 -43 46 0
-41 43 46 0
41 45 -47 0
-41 -45 -47 0
41 -45 47 0
-41 45 47 0
43 45 -48 0
-43 -45 -48 0
43 -45 48 0
-43 45 48 0
46 47 48 0
1 4 -49 0
-1 -4 -49 0
1 -4 49 0
-1 4 49 0
5 6 -50 0
-5 -6 -50 0
5 -6 50 0
-5 6 50 0
50 8 -51 0
-50 -8 -51 0
50 -8 51 0
-50 8 51 0
9 10 -52 0
-9 -10 -52 0
9 -10 52 0
-9 10 52 0
52 12 -53 0
-52 -12 -53 0
52 -12 53 0
-52 12 53 0
49 51 -54 0
-49 -51 -54 0
49 -51 54 0
-49 51 54 0
49 53 -55 0
-49 -53 -55 0
49 -53 55 0
-49 53 55 0
51 53 -56 0
-51 -53 -56 0
51 -53 56 0
-51 53 56 0
54 55 56 0
1 3 -57 0
-1 -3 -57 0
1 -3 57 0
-1 3 57 0
57 4 -58 0
-57 -4 -58 0
57 -4 58 0
-57 4 58 0
5 8 -59 0
-5 -8 -59 0
5 -8 59 0
-5 8 59 0
9 11 -60 0
-9 -11 -60 0
9 -11 60 0
-9 11 60 0
60 12 -61 0
-60 -12 -61 0
60 -12 61 0
-60 12 61 0
58 59 -62 0
-58 -59 -62 0
58 -59 62 0
-58 59 62 0
58 61 -63 0
-58 -61 -63 0
58 -61 63 0
-58 61 63 0
59 61 -64 0
-59 -61 -64 0
59 -61 64 0
-59 61 64 0
62 63 64 0
1 3 -65 0
-1 -3 -65 0
1 -3 65 0
-1 3 65 0
65 4 -66 0
-65 -4 -66 0
65 -4 66 0
-65 4 66 0
5 7 -67 0
-5 -7 -67 0
5 -7 67 0
-5 7 67 0
67 8 -68 0
-67 -8 -68 0
67 -8 68 0
-67 8 68 0
9 12 -69 0
-9 -12 -69 0
9 -12 69 0
-9 12 69 0
66 68 -70 0
-66 -68 -70 0
66 -68 70 0
-66 68 70 0
66 69 -71 0
-66 -69 -71 0
66 -69 71 0
-66 69 71 0
68 69 -72 0
-68 -69 -72 0
68 -69 72 0
-68 69 72 0
70 71 72 0
1 3 -73 0
-1 -3 -73 0
1 -3 73 0
-1 3 73 0
73 4 -74 0
-73 -4 -74 0
73 -4 74 0
-73 4 74 0
6 7 -75 0
-6 -7 -75 0
6 -7 75 0
-6 7 75 0
9 10 -76 0
-9 -10 -76 0
9 -10 76 0
-9 10 76 0
76 11 -77 0
-76 -11 -77 0
76 -11 77 0
-76 11 77 0
74 75 -78 0
-74 -75 -78 0
74 -75 78 0
-74 75 78 0
74 77 -79 0
-74 -77 -79 0
74 -77 79 0
-74 77 79 0
75 77 -80 0
-75 -77 -80 0
75 -77 80 0
-75 77 80 0
78 79 80 0
1 3 -81 0
-1 -3 -81 0
1 -3 81 0
-1 3 81 0
81 4 -82 0
-81 -4 -82 0
81 -4 82 0
-81 4 82 0
6 7 -83 0
-6 -7 -83 0
6 -7 83 0
-6 7 83 0
83 8 -84 0
-83 -8 -84 0
83 -8 84 0
-83 8 84 0
9 10 -85 0
-9 -10 -85 0
9 -10 85 0
-9 10 85 0
85 12 -86 0
-85 -12 -86 0
85 -12 86 0
-85 12 86 0
82 84 -87 0
-82 -84 -87 0
82 -84 87 0
-82 84 87 0
82 86 -88 0
-82 -86 -88 0
82 -86 88 0
-82 86 88 0
84 86 -89 0
-84 -86 -89 0
84 -86 89 0
-84 86 89 0
87 88 89 0
1 3 -90 0
-1 -3 -90 0
1 -3 90 0
-1 3 90 0
90 4 -91 0
-90 -4 -91 0
90 -4 91 0
-90 4 91 0
5 6 -92 0
-5 -6 -92 0
5 -6 92 0
-5 6 92 0
92 7 -93 0
-92 -7 -93 0
92 -7 93 0
-92 7 93 0
10 11 -94 0
-10 -11 -94 0
10 -11 94 0
-10 11 94 0
91 93 -95 0
-91 -93 -95 0
91 -93 95 0
-91 93 95 0
91 94 -96 0
-91 -94 -96 0
91 -94 96 0
-91 94 96 0
93 94 -97 0
-93 -94 -97 0
93 -94 97 0
-93 94 97 0
95 96 97 0
1 3 -98 0
-1 -3 -98 0
1 -3 98 0
-1 3 98 0
98 4 -99 0
-98 -4 -99 0
98 -4 99 0
-98 4 99 0
5 6 -100 0
-5 -6 -100 0
5 -6 100 0
-5 6 100 0
100 8 -101 0
-100 -8 -101 0
100 -8 101 0
-100 8 101 0
10 11 -102 0
-10 -11 -102 0
10 -11 102 0
-10 11 102 0
102 12 -103 0
-102 -12 -103 0
102 -12 103 0
-102 12 103 0
99 101 -104 0
-99 -101 -104 0
99 -101 104 0
-99 101 104 0
99 103 -105 0
-99 -103 -105 0
99 -103 105 0
-99 103 105 0
101 103 -106 0
-101 -103 -106 0
101 -103 106 0
-101 103 106 0
104 105 106 0
2 3 -107 0
-2 -3 -107 0
2 -3 107 0
-2 3 107 0
5 8 -108 0
-5 -8 -108 0
5 -8 108 0
-5 8 108 0
10 11 -109 0
-10 -11 -109 0
10 -11 109 0
-10 11 109 0
107 108 -110 0
-107 -108 -110 0
107 -108 110 0
-107 108 110 0
107 109 -111 0
-107 -109 -111 0
107 -109 111 0
-107 109 111 0
108 109 -112 0
-108 -109 -112 0
108 -109 112 0
-108 109 112 0
110 111 112 0
2 3 -113 0
-2 -3 -113 0
2 -3 113 0
-2 3 113 0
5 7 -114 0
-5 -7 -114 0
5 -7 114 0
-5 7 114 0
114 8 -115 0
-114 -8 -115 0
114 -8 115 0
-114 8 115 0
10 11 -116 0
-10 -11 -116 0
10 -11 116 0
-10 11 116 0
116 12 -117 0
-116 -12 -117 0
116 -12 117 0
-116 12 117 0
113 115 -118 0
-113 -115 -118 0
113 -115 118 0
-113 115 118 0
113 117 -119 0
-113 -117 -119 0
113 -117 119 0
-113 117 119 0
115 117 -120 0
-115 -117 -120 0
115 -117 120 0
-115 117 120 0
118 119 120 0
2 3 -121 0
-2 -3 -121 0
2 -3 121 0
-2 3 121 0
6 7 -122 0
-6 -7 -122 0
6 -7 122 0
-6 7 122 0
9 12 -123 0
-9 -12 -123 0
9 -12 123 0
-9 12 123 0
121 122 -124 0
-121 -122 -124 0
121 -122 124 0
-121 122 124 0
121 123 -125 0
-121 -123 -125 0
121 -123 125 0
-121 123 125 0
122 123 -126 0
-122 -123 -126 0
122 -123 126 0
-122 123 126 0
124 125 126 0
2 3 -127 0
-2 -3 -127 0
2 -3 127 0
-2 3 127 0
6 7 -128 0
-6 -7 -128 0
6 -7 128 0
-6 7 128 0
128 8 -129 0
-128 -8 -129 0
128 -8 129 0
-128 8 129 0
9 11 -130 0
-9 -11 -130 0
9 -11 130 0
-9 11 130 0
130 12 -131 0
-130 -12 -131 0
130 -12 131 0
-130 12 131 0
127 129 -132 0
-127 -129 -132 0
127 -129 132 0
-127 129 132 0
127 131 -133 0
-127 -131 -133 0
127 -131 133 0
-127 131 133 0
129 131 -134 0
-129 -131 -134 0
129 -131 134 0
-129 131 134 0
132 133 134 0
2 3 -135 0
-2 -3 -135 0
2 -3 135 0
-2 3 135 0
5 6 -136 0
-5 -6 -136 0
5 -6 136 0
-5 6 136 0
136 7 -137 0
-136 -7 -137 0
136 -7 137 0
-136 7 137 0
9 10 -138 0
-9 -10 -138 0
9 -10 138 0
-9 10 138 0
138 12 -139 0
-138 -12 -139 0
138 -12 139 0
-138 12 139 0
135 137 -140 0
-135 -137 -140 0
135 -137 140 0
-135 137 140 0
135 139 -141 0
-135 -139 -141 0
135 -139 141 0
-135 139 141 0
137 139 -142 0
-137 -139 -142 0
137 -139 142 0
-137 139 142 0
140 141 142 0
2 3 -143 0
-2 -3 -143 0
2 -3 143 0
-2 3 143 0
5 6 -144 0
-5 -6 -144 0
5 -6 144 0
-5 6 144 0
144 8 -145 0
-144 -8 -145 0
144 -8 145 0
-144 8 145 0
9 10 -146 0
-9 -10 -146 0
9 -10 146 0
-9 10 146 0
146 11 -147 0
-146 -11 -147 0
146 -11 147 0
-146 11 147 0
143 145 -148 0
-143 -145 -148 0
143 -145 148 0
-143 145 148 0
143 147 -149 0
-143 -147 -149 0
143 -147 149 0
-143 147 149 0
145 147 -150 0
-145 -147 -150 0
145 -147 150 0
-145 147 150 0
148 149 150 0
2 3 -151 0
-2 -3 -151 0
2 -3 151 0
-2 3 151 0
151 4 -152 0
-151 -4 -152 0
151 -4 152 0
-151 4 152 0
5 8 -153 0
-5 -8 -153 0
5 -8 153 0
-5 8 153 0
9 10 -154 0
-9 -10 -154 0
9 -10 154 0
-9 10 154 0
154 11 -155 0
-154 -11 -155 0
154 -11 155 0
-154 11 155 0
152 153 -156 0
-152 -153 -156 0
152 -153 156 0
-152 153 156 0
152 155 -157 0
-152 -155 -157 0
152 -155 157 0
-152 155 157 0
153 155 -158 0
-153 -155 -158 0
153 -155 158 0
-153 155 158 0
156 157 158 0
2 3 -159 0
-2 -3 -159 0
2 -3 159 0
-2 3 159 0
159 4 -160 0
-159 -4 -160 0
159 -4 160 0
-159 4 160 0
5 7 -161 0
-5 -7 -161 0
5 -7 161 0
-5 7 161 0
161 8 -162 0
-161 -8 -162 0
161 -8 162 0
-161 8 162 0
9 10 -163 0
-9 -10 -163 0
9 -10 163 0
-9 10 163 0
163 12 -164 0
-163 -12 -164 0
163 -12 164 0
-163 12 164 0
160 162 -165 0
-160 -162 -165 0
160 -162 165 0
-160 162 165 0
160 164 -166 0
-160 -164 -166 0
160 -164 166 0
-160 164 166 0
162 164 -167 0
-162 -164 -167 0
162 -164 167 0
-162 164 167 0
165 166 167 0
2 3 -168 0
-2 -3 -168 0
2 -3 168 0
-2 3 168 0
168 4 -169 0
-168 -4 -169 0
168 -4 169 0
-168 4 169 0
6 7 -170 0
-6 -7 -170 0
6 -7 170 0
-6 7 170 0
9 11 -171 0
-9 -11 -171 0
9 -11 171 0
-9 11 171 0
171 12 -172 0
-171 -12 -172 0
171 -12 172 0
-171 12 172 0
169 170 -173 0
-169 -170 -173 0
169 -170 173 0
-169 170 173 0
169 172 -174 0
-169 -172 -174 0
169 -172 174 0
-169 172 174 0
170 172 -175 0
-170 -172 -175 0
170 -172 175 0
-170 172 175 0
173 174 175 0
2 3 -176 0
-2 -3 -176 0
2 -3 176 0
-2 3 176 0
176 4 -177 0
-176 -4 -177 0
176 -4 177 0
-176 4 177 0
6 7 -178 0
-6 -7 -178 0
6 -7 178 0
-6 7 178 0
178 8 -179 0
-178 -8 -179 0
178 -8 179 0
-178 8 179 0
9 12 -180 0
-9 -12 -180 0
9 -12 180 0
-9 12 180 0
177 179 -181 0
-177 -179 -181 0
177 -179 181 0
-177 179 181 0
177 180 -182 0
-177 -180 -182 0
177 -180 182 0
-177 180 182 0
179 180 -183 0
-179 -180 -183 0
179 -180 183 0
-179 180 183 0
181 182 183 0
2 3 -184 0
-2 -3 -184 0
2 -3 184 0
-2 3 184 0
184 4 -185 0
-184 -4 -185 0
184 -4 185 0
-184 4 185 0
5 6 -186 0
-5 -6 -186 0
5 -6 186 0
-5 6 186 0
186 7 -187 0
-186 -7 -187 0
186 -7 187 0
-186 7 187 0
10 11 -188 0
-10 -11 -188 0
10 -11 188 0
-10 11 188 0
188 12 -189 0
-188 -12 -189 0
188 -12 189 0
-188 12 189 0
185 187 -190 0
-185 -187 -190 0
185 -187 190 0
-185 187 190 0
185 189 -191 0
-185 -189 -191 0
185 -189 191 0
-185 189 191 0
187 189 -192 0
-187 -189 -192 0
187 -189 192 0
-187 189 192 0
190 191 192 0
2 3 -193 0
-2 -3 -193 0
2 -3 193 0
-2 3 193 0
193 4 -194 0
-193 -4 -194 0
193 -4 194 0
-193 4 194 0
5 6 -195 0
-5 -6 -195 0
5 -6 195 0
-5 6 195 0
195 8 -196 0
-195 -8 -196 0
195 -8 196 0
-195 8 196 0
10 11 -197 0
-10 -11 -197 0
10 -11 197 0
-10 11 197 0
194 196 -198 0
-194 -196 -198 0
194 -196 198 0
-194 196 198 0
194 197 -199 0
-194 -197 -199 0
194 -197 199 0
-194 197 199 0
196 197 -200 0
-196 -197 -200 0
196 -197 200 0
-196 197 200 0
198 199 200 0
1 2 -201 0
-1 -2 -201 0
1 -2 201 0
-1 2 201 0
201 3 -202 0
-201 -3 -202 0
201 -3 202 0
-201 3 202 0
5 8 -203 0
-5 -8 -203 0
5 -8 203 0
-5 8 203 0
10 11 -204 0
-10 -11 -204 0
10 -11 204 0
-10 11 204 0
204 12 -205 0
-204 -12 -205 0
204 -12 205 0
-204 12 205 0
202 203 -206 0
-202 -203 -206 0
202 -203 206 0
-202 203 206 0
202 205 -207 0
-202 -205 -207 0
202 -205 207 0
-202 205 207 0
203 205 -208 0
-203 -205 -208 0
203 -205 208 0
-203 205 208 0
206 207 208 0
1 2 -209 0
-1 -2 -209 0
1 -2 209 0
-1 2 209 0
209 3 -210 0
-209 -3 -210 0
209 -3 210 0
-209 3 210 0
5 7 -211 0
-5 -7 -211 0
5 -7 211 0
-5 7 211 0
211 8 -212 0
-211 -8 -212 0
211 -8 212 0
-211 8 212 0
10 11 -213 0
-10 -11 -213 0
10 -11 213 0
-10 11 213 0
210 212 -214 0
-210 -212 -214 0
210 -212 214 0
-210 212 214 0
210 213 -215 0
-210 -213 -215 0
210 -213 215 0
-210 213 215 0
212 213 -216 0
-212 -213 -216 0
212 -213 216 0
-212 213 216 0
214 215 216 0
1 2 -217 0
-1 -2 -217 0
1 -2 217 0
-1 2 217 0
217 3 -218 0
-217 -3 -218 0
217 -3 218 0
-217 3 218 0
6 7 -219 0
-6 -7 -219 0
6 -7 219 0
-6 7 219 0
9 10 -220 0
-9 -10 -220 0
9 -10 220 0
-9 10 220 0
220 12 -221 0
-220 -12 -221 0
220 -12 221 0
-220 12 221 0
218 219 -222 0
-218 -219 -222 0
218 -219 222 0
-218 219 222 0
218 221 -223 0
-218 -221 -223 0
218 -221 223 0
-218 221 223 0
219 221 -224 0
-219 -221 -224 0
219 -221 224 0
-219 221 224 0
222 223 224 0
1 2 -225 0
-1 -2 -225 0
1 -2 225 0
-1 2 225 0
225 3 -226 0
-225 -3 -226 0
225 -3 226 0
-225 3 226 0
6 7 -227 0
-6 -7 -227 0
6 -7 227 0
-6 7 227 0
227 8 -228 0
-227 -8 -228 0
227 -8 228 0
-227 8 228 0
9 10 -229 0
-9 -10 -229 0
9 -10 229 0
-9 10 229 0
229 11 -230 0
-229 -11 -230 0
229 -11 230 0
-229 11 230 0
226 228 -231 0
-226 -228 -231 0
226 -228 231 0
-226 228 231 0
226 230 -232 0
-226 -230 -232 0
226 -230 232 0
-226 230 232 0
228 230 -233 0
-228 -230 -233 0
228 -230 233 0
-228 230 233 0
231 232 233 0
1 2 -234 0
-1 -2 -234 0
1 -2 234 0
-1 2 234 0
234 3 -235 0
-234 -3 -235 0
234 -3 235 0
-234 3 235 0
5 6 -236 0
-5 -6 -236 0
5 -6 236 0
-5 6 236 0
236 7 -237 0
-236 -7 -237 0
236 -7 237 0
-236 7 237 0
9 12 -238 0
-9 -12 -238 0
9 -12 238 0
-9 12 238 0
235 237 -239 0
-235 -237 -239 0
235 -237 239 0
-235 237 239 0
235 238 -240 0
-235 -238 -240 0
235 -238 240 0
-235 238 240 0
237 238 -241 0
-237 -238 -241 0
237 -238 241 0
-237 238 241 0
239 240 241 0
1 2 -242 0
-1 -2 -242 0
1 -2 242 0
-1 2 242 0
242 3 -243 0
-242 -3 -243 0
242 -3 243 0
-242 3 243 0
5 6 -244 0
-5 -6 -244 0
5 -6 244 0
-5 6 244 0
244 8 -245 0
-244 -8 -245 0
244 -8 245 0
-244 8 245 0
9 11 -246 0
-9 -11 -246 0
9 -11 246 0
-9 11 246 0
246 12 -247 0
-246 -12 -247 0
246 -12 247 0
-246 12 247 0
243 245 -248 0
-243 -245 -248 0
243 -245 248 0
-243 245 248 0
243 247 -249 0
-243 -247 -249 0
243 -247 249 0
-243 247 249 0
245 247 -250 0
-245 -247 -250 0
245 -247 250 0
-245 247 250 0
248 249 250 0
1 2 -251 0
-1 -2 -251 0
1 -2 251 0
-1 2 251 0
251 4 -252 0
-251 -4 -252 0
251 -4 252 0
-251 4 252 0
5 8 -253 0
-5 -8 -253 0
5 -8 253 0
-5 8 253 0
9 10 -254 0
-9 -10 -254 0
9 -10 254 0
-9 10 254 0
254 12 -255 0
-254 -12 -255 0
254 -12 255 0
-254 12 255 0
252 253 -256 0
-252 -253 -256 0
252 -253 256 0
-252 253 256 0
252 255 -257 0
-252 -255 -257 0
252 -255 257 0
-252 255 257 0
253 255 -258 0
-253 -255 -258 0
253 -255 258 0
-253 255 258 0
256 257 258 0
1 2 -259 0
-1 -2 -259 0
1 -2 259 0
-1 2 259 0
259 4 -260 0
-259 -4 -260 0
259 -4 260 0
-259 4 260 0
5 7 -261 0
-5 -7 -261 0
5 -7 261 0
-5 7 261 0
261 8 -262 0
-261 -8 -262 0
261 -8 262 0
-261 8 262 0
9 10 -263 0
-9 -10 -263 0
9 -10 263 0
-9 10 263 0
263 11 -264 0
-263 -11 -264 0
263 -11 264 0
-263 11 264 0
260 262 -265 0
-260 -262 -265 0
260 -262 265 0
-260 262 265 0
260 264 -266 0
-260 -264 -266 0
260 -264 266 0
-260 264 266 0
262 264 -267 0
-262 -264 -267 0
262 -264 267 0
-262 264 267 0
265 266 267 0
1 2 -268 0
-1 -2 -268 0
1 -2 268 0
-1 2 268 0
268 4 -269 0
-268 -4 -269 0
268 -4 269 0
-268 4 269 0
6 7 -270 0
-6 -7 -270 0
6 -7 270 0
-6 7 270 0
10 11 -271 0
-10 -11 -271 0
10 -11 271 0
-10 11 271 0
271 12 -272 0
-271 -12 -272 0
271 -12 272 0
-271 12 272 0
269 270 -273 0
-269 -270 -273 0
269 -270 273 0
-269 270 273 0
269 272 -274 0
-269 -272 -274 0
269 -272 274 0
-269 272 274 0
270 272 -275 0
-270 -272 -275 0
270 -272 275 0
-270 272 275 0
273 274 275 0
1 2 -276 0
-1 -2 -276 0
1 -2 276 0
-1 2 276 0
276 4 -277 0
-276 -4 -277 0
276 -4 277 0
-276 4 277 0
6 7 -278 0
-6 -7 -278 0
6 -7 278 0
-6 7 278 0
278 8 -279 0
-278 -8 -279 0
278 -8 279 0
-278 8 279 0
10 11 -280 0
-10 -11 -280 0
10 -11 280 0
-10 11 280 0
277 279 -281 0
-277 -279 -281 0
277 -279 281 0
-277 279 281 0
277 280 -282 0
-277 -280 -282 0
277 -280 282 0
-277 280 282 0
279 280 -283 0
-279 -280 -283 0
279 -280 283 0
-279 280 283 0
281 282 283 0
1 2 -284 0
-1 -2 -284 0
1 -2 284 0
-1 2 284 0
284 4 -285 0
-284 -4 -285 0
284 -4 285 0
-284 4 285 0
5 6 -286 0
-5 -6 -286 0
5 -6 286 0
-5 6 286 0
286 7 -287 0
-286 -7 -287 0
286 -7 287 0
-286 7 287 0
9 11 -288 0
-9 -11 -288 0
9 -11 288 0
-9 11 288 0
288 12 -289 0
-288 -12 -289 0
288 -12 289 0
-288 12 289 0
285 287 -290 0
-285 -287 -290 0
285 -287 290 0
-285 287 290 0
285 289 -291 0
-285 -289 -291 0
285 -289 291 0
-285 289 291 0
287 289 -292 0
-287 -289 -292 0
287 -289 292 0
-287 289 292 0
290 291 292 0
1 2 -293 0
-1 -2 -293 0
1 -2 293 0
-1 2 293 0
293 4 -294 0
-293 -4 -294 0
293 -4 294 0
-293 4 294 0
5 6 -295 0
-5 -6 -295 0
5 -6 295 0
-5 6 295 0
295 8 -296 0
-295 -8 -296 0
295 -8 296 0
-295 8 296 0
9 12 -297 0
-9 -12 -297 0
9 -12 297 0
-9 12 297 0
294 296 -298 0
-294 -296 -298 0
294 -296 298 0
-294 296 298 0
294 297 -299 0
-294 -297 -299 0
294 -297 299 0
-294 297 299 0
296 297 -300 0
-296 -297 -300 0
296 -297 300 0
-296 297 300 0
298 299 300 0
