p cnf 3912 15768
1 4 -25 0
-1 -4 -25 0
1 -4 25 0
-1 4 25 0
5 8 -26 0
-5 -8 -26 0
5 -8 26 0
-5 8 26 0
9 12 -27 0
-9 -12 -27 0
9 -12 27 0
-9 12 27 0
13 16 -28 0
-13 -16 -28 0
13 -16 28 0
-13 16 28 0
17 20 -29 0
-17 -20 -29 0
17 -20 29 0
-17 20 29 0
21 24 -30 0
-21 -24 -30 0
21 -24 30 0
-21 24 30 0
25 26 -31 0
-25 -26 -31 0
25 -26 31 0
-25 26 31 0
31 27 -32 0
-31 -27 -32 0
31 -27 32 0
-31 27 32 0
25 28 -33 0
-25 -28 -33 0
25 -28 33 0
-25 28 33 0
33 29 -34 0
-33 -29 -34 0
33 -29 34 0
-33 29 34 0
26 28 -35 0
-26 -28 -35 0
26 -28 35 0
-26 28 35 0
35 30 -36 0
-35 -30 -36 0
35 -30 36 0
-35 30 36 0
27 29 -37 0
-27 -29 -37 0
27 -29 37 0
-27 29 37 0
37 30 -38 0
-37 -30 -38 0
37 -30 38 0
-37 30 38 0
32 34 36 38 0
1 4 -39 0
-1 -4 -39 0
1 -4 39 0
-1 4 39 0
5 8 -40 0
-5 -8 -40 0
5 -8 40 0
-5 8 40 0
9 11 -41 0
-9 -11 -41 0
9 -11 41 0
-9 11 41 0
41 12 -42 0
-41 -12 -42 0
41 -12 42 0
-41 12 42 0
13 16 -43 0
-13 -16 -43 0
13 -16 43 0
-13 16 43 0
17 19 -44 0
-17 -19 -44 0
17 -19 44 0
-17 19 44 0
44 20 -45 0
-44 -20 -45 0
44 -20 45 0
-44 20 45 0
21 23 -46 0
-21 -23 -46 0
21 -23 46 0
-21 23 46 0
46 24 -47 0
-46 -24 -47 0
46 -24 47 0
-46 24 47 0
39 40 -48 0
-39 -40 -48 0
39 -40 48 0
-39 40 48 0
48 42 -49 0
-48 -42 -49 0
48 -42 49 0
-48 42 49 0
39 43 -50 0
-39 -43 -50 0
39 -43 50 0
-39 43 50 0
50 45 -51 0
-50 -45 -51 0
50 -45 51 0
-50 45 51 0
40 43 -52 0
-40 -43 -52 0
40 -43 52 0
-40 43 52 0
52 47 -53 0
-52 -47 -53 0
52 -47 53 0
-52 47 53 0
42 45 -54 0
-42 -45 -54 0
42 -45 54 0
-42 45 54 0
54 47 -55 0
-54 -47 -55 0
54 -47 55 0
-54 47 55 0
49 51 53 55 0
1 4 -56 0
-1 -4 -56 0
1 -4 56 0
-1 4 56 0
5 8 -57 0
-5 -8 -57 0
5 -8 57 0
-5 8 57 0
10 11 -58 0
-10 -11 -58 0
10 -11 58 0
-10 11 58 0
13 16 -59 0
-13 -16 -59 0
13 -16 59 0
-13 16 59 0
18 19 -60 0
-18 -19 -60 0
18 -19 60 0
-18 19 60 0
22 23 -61 0
-22 -23 -61 0
22 -23 61 0
-22 23 61 0
56 57 -62 0
-56 -57 -62 0
56 -57 62 0
-56 57 62 0
62 58 -63 0
-62 -58 -63 0
62 -58 63 0
-62 58 63 0
56 59 -64 0
-56 -59 -64 0
56 -59 64 0
-56 59 64 0
64 60 -65 0
-64 -60 -65 0
64 -60 65 0
-64 60 65 0
57 59 -66 0
-57 -59 -66 0
57 -59 66 0
-57 59 66 0
66 61 -67 0
-66 -61 -67 0
66 -61 67 0
-66 61 67 0
58 60 -68 0
-58 -60 -68 0
58 -60 68 0
-58 60 68 0
68 61 -69 0
-68 -61 -69 0
68 -61 69 0
-68 61 69 0
63 65 67 69 0
1 4 -70 0
-1 -4 -70 0
1 -4 70 0
-1 4 70 0
5 8 -71 0
-5 -8 -71 0
5 -8 71 0
-5 8 71 0
10 11 -72 0
-10 -11 -72 0
10 -11 72 0
-10 11 72 0
72 12 -73 0
-72 -12 -73 0
72 -12 73 0
-72 12 73 0
13 16 -74 0
-13 -16 -74 0
13 -16 74 0
-13 16 74 0
18 19 -75 0
-18 -19 -75 0
18 -19 75 0
-18 19 75 0
75 20 -76 0
-75 -20 -76 0
75 -20 76 0
-75 20 76 0
22 23 -77 0
-22 -23 -77 0
22 -23 77 0
-22 23 77 0
77 24 -78 0
-77 -24 -78 0
77 -24 78 0
-77 24 78 0
70 71 -79 0
-70 -71 -79 0
70 -71 79 0
-70 71 79 0
79 73 -80 0
-79 -73 -80 0
79 -73 80 0
-79 73 80 0
70 74 -81 0
-70 -74 -81 0
70 -74 81 0
-70 74 81 0
81 76 -82 0
-81 -76 -82 0
81 -76 82 0
-81 76 82 0
71 74 -83 0
-71 -74 -83 0
71 -74 83 0
-71 74 83 0
83 78 -84 0
-83 -78 -84 0
83 -78 84 0
-83 78 84 0
73 76 -85 0
-73 -76 -85 0
73 -76 85 0
-73 76 85 0
85 78 -86 0
-85 -78 -86 0
85 -78 86 0
-85 78 86 0
80 82 84 86 0
1 4 -87 0
-1 -4 -87 0
1 -4 87 0
-1 4 87 0
5 8 -88 0
-5 -8 -88 0
5 -8 88 0
-5 8 88 0
9 10 -89 0
-9 -10 -89 0
9 -10 89 0
-9 10 89 0
89 11 -90 0
-89 -11 -90 0
89 -11 90 0
-89 11 90 0
13 16 -91 0
-13 -16 -91 0
13 -16 91 0
-13 16 91 0
17 18 -92 0
-17 -18 -92 0
17 -18 92 0
-17 18 92 0
92 19 -93 0
-92 -19 -93 0
92 -19 93 0
-92 19 93 0
21 22 -94 0
-21 -22 -94 0
21 -22 94 0
-21 22 94 0
94 23 -95 0
-94 -23 -95 0
94 -23 95 0
-94 23 95 0
87 88 -96 0
-87 -88 -96 0
87 -88 96 0
-87 88 96 0
96 90 -97 0
-96 -90 -97 0
96 -90 97 0
-96 90 97 0
87 91 -98 0
-87 -91 -98 0
87 -91 98 0
-87 91 98 0
98 93 -99 0
-98 -93 -99 0
98 -93 99 0
-98 93 99 0
88 91 -100 0
-88 -91 -100 0
88 -91 100 0
-88 91 100 0
100 95 -101 0
-100 -95 -101 0
100 -95 101 0
-100 95 101 0
90 93 -102 0
-90 -93 -102 0
90 -93 102 0
-90 93 102 0
102 95 -103 0
-102 -95 -103 0
102 -95 103 0
-102 95 103 0
97 99 101 103 0
1 4 -104 0
-1 -4 -104 0
1 -4 104 0
-1 4 104 0
5 8 -105 0
-5 -8 -105 0
5 -8 105 0
-5 8 105 0
9 10 -106 0
-9 -10 -106 0
9 -10 106 0
-9 10 106 0
106 12 -107 0
-106 -12 -107 0
106 -12 107 0
-106 12 107 0
13 16 -108 0
-13 -16 -108 0
13 -16 108 0
-13 16 108 0
17 18 -109 0
-17 -18 -109 0
17 -18 109 0
-17 18 109 0
109 20 -110 0
-109 -20 -110 0
109 -20 110 0
-109 20 110 0
21 22 -111 0
-21 -22 -111 0
21 -22 111 0
-21 22 111 0
111 24 -112 0
-111 -24 -112 0
111 -24 112 0
-111 24 112 0
104 105 -113 0
-104 -105 -113 0
104 -105 113 0
-104 105 113 0
113 107 -114 0
-113 -107 -114 0
113 -107 114 0
-113 107 114 0
104 108 -115 0
-104 -108 -115 0
104 -108 115 0
-104 108 115 0
115 110 -116 0
-115 -110 -116 0
115 -110 116 0
-115 110 116 0
105 108 -117 0
-105 -108 -117 0
105 -108 117 0
-105 108 117 0
117 112 -118 0
-117 -112 -118 0
117 -112 118 0
-117 112 118 0
107 110 -119 0
-107 -110 -119 0
107 -110 119 0
-107 110 119 0
119 112 -120 0
-119 -112 -120 0
119 -112 120 0
-119 112 120 0
114 116 118 120 0
1 4 -121 0
-1 -4 -121 0
1 -4 121 0
-1 4 121 0
5 7 -122 0
-5 -7 -122 0
5 -7 122 0
-5 7 122 0
122 8 -123 0
-122 -8 -123 0
122 -8 123 0
-122 8 123 0
9 12 -124 0
-9 -12 -124 0
9 -12 124 0
-9 12 124 0
13 15 -125 0
-13 -15 -125 0
13 -15 125 0
-13 15 125 0
125 16 -126 0
-125 -16 -126 0
125 -16 126 0
-125 16 126 0
17 20 -127 0
-17 -20 -127 0
17 -20 127 0
-17 20 127 0
21 23 -128 0
-21 -23 -128 0
21 -23 128 0
-21 23 128 0
128 24 -129 0
-128 -24 -129 0
128 -24 129 0
-128 24 129 0
121 123 -130 0
-121 -123 -130 0
121 -123 130 0
-121 123 130 0
130 124 -131 0
-130 -124 -131 0
130 -124 131 0
-130 124 131 0
121 126 -132 0
-121 -126 -132 0
121 -126 132 0
-121 126 132 0
132 127 -133 0
-132 -127 -133 0
132 -127 133 0
-132 127 133 0
123 126 -134 0
-123 -126 -134 0
123 -126 134 0
-123 126 134 0
134 129 -135 0
-134 -129 -135 0
134 -129 135 0
-134 129 135 0
124 127 -136 0
-124 -127 -136 0
124 -127 136 0
-124 127 136 0
136 129 -137 0
-136 -129 -137 0
136 -129 137 0
-136 129 137 0
131 133 135 137 0
1 4 -138 0
-1 -4 -138 0
1 -4 138 0
-1 4 138 0
5 7 -139 0
-5 -7 -139 0
5 -7 139 0
-5 7 139 0
139 8 -140 0
-139 -8 -140 0
139 -8 140 0
-139 8 140 0
9 11 -141 0
-9 -11 -141 0
9 -11 141 0
-9 11 141 0
141 12 -142 0
-141 -12 -142 0
141 -12 142 0
-141 12 142 0
13 15 -143 0
-13 -15 -143 0
13 -15 143 0
-13 15 143 0
143 16 -144 0
-143 -16 -144 0
143 -16 144 0
-143 16 144 0
17 19 -145 0
-17 -19 -145 0
17 -19 145 0
-17 19 145 0
145 20 -146 0
-145 -20 -146 0
145 -20 146 0
-145 20 146 0
21 24 -147 0
-21 -24 -147 0
21 -24 147 0
-21 24 147 0
138 140 -148 0
-138 -140 -148 0
138 -140 148 0
-138 140 148 0
148 142 -149 0
-148 -142 -149 0
148 -142 149 0
-148 142 149 0
138 144 -150 0
-138 -144 -150 0
138 -144 150 0
-138 144 150 0
150 146 -151 0
-150 -146 -151 0
150 -146 151 0
-150 146 151 0
140 144 -152 0
-140 -144 -152 0
140 -144 152 0
-140 144 152 0
152 147 -153 0
-152 -147 -153 0
152 -147 153 0
-152 147 153 0
142 146 -154 0
-142 -146 -154 0
142 -146 154 0
-142 146 154 0
154 147 -155 0
-154 -147 -155 0
154 -147 155 0
-154 147 155 0
149 151 153 155 0
1 4 -156 0
-1 -4 -156 0
1 -4 156 0
-1 4 156 0
5 7 -157 0
-5 -7 -157 0
5 -7 157 0
-5 7 157 0
157 8 -158 0
-157 -8 -158 0
157 -8 158 0
-157 8 158 0
10 11 -159 0
-10 -11 -159 0
10 -11 159 0
-10 11 159 0
13 15 -160 0
-13 -15 -160 0
13 -15 160 0
-13 15 160 0
160 16 -161 0
-160 -16 -161 0
160 -16 161 0
-160 16 161 0
18 19 -162 0
-18 -19 -162 0
18 -19 162 0
-18 19 162 0
21 22 -163 0
-21 -22 -163 0
21 -22 163 0
-21 22 163 0
163 23 -164 0
-163 -23 -164 0
163 -23 164 0
-163 23 164 0
156 158 -165 0
-156 -158 -165 0
156 -158 165 0
-156 158 165 0
165 159 -166 0
-165 -159 -166 0
165 -159 166 0
-165 159 166 0
156 161 -167 0
-156 -161 -167 0
156 -161 167 0
-156 161 167 0
167 162 -168 0
-167 -162 -168 0
167 -162 168 0
-167 162 168 0
158 161 -169 0
-158 -161 -169 0
158 -161 169 0
-158 161 169 0
169 164 -170 0
-169 -164 -170 0
169 -164 170 0
-169 164 170 0
159 162 -171 0
-159 -162 -171 0
159 -162 171 0
-159 162 171 0
171 164 -172 0
-171 -164 -172 0
171 -164 172 0
-171 164 172 0
166 168 170 172 0
1 4 -173 0
-1 -4 -173 0
1 -4 173 0
-1 4 173 0
5 7 -174 0
-5 -7 -174 0
5 -7 174 0
-5 7 174 0
174 8 -175 0
-174 -8 -175 0
174 -8 175 0
-174 8 175 0
10 11 -176 0
-10 -11 -176 0
10 -11 176 0
-10 11 176 0
176 12 -177 0
-176 -12 -177 0
176 -12 177 0
-176 12 177 0
13 15 -178 0
-13 -15 -178 0
13 -15 178 0
-13 15 178 0
178 16 -179 0
-178 -16 -179 0
178 -16 179 0
-178 16 179 0
18 19 -180 0
-18 -19 -180 0
18 -19 180 0
-18 19 180 0
180 20 -181 0
-180 -20 -181 0
180 -20 181 0
-180 20 181 0
21 22 -182 0
-21 -22 -182 0
21 -22 182 0
-21 22 182 0
182 24 -183 0
-182 -24 -183 0
182 -24 183 0
-182 24 183 0
173 175 -184 0
-173 -175 -184 0
173 -175 184 0
-173 175 184 0
184 177 -185 0
-184 -177 -185 0
184 -177 185 0
-184 177 185 0
173 179 -186 0
-173 -179 -186 0
173 -179 186 0
-173 179 186 0
186 181 -187 0
-186 -181 -187 0
186 -181 187 0
-186 181 187 0
175 179 -188 0
-175 -179 -188 0
175 -179 188 0
-175 179 188 0
188 183 -189 0
-188 -183 -189 0
188 -183 189 0
-188 183 189 0
177 181 -190 0
-177 -181 -190 0
177 -181 190 0
-177 181 190 0
190 183 -191 0
-190 -183 -191 0
190 -183 191 0
-190 183 191 0
185 187 189 191 0
1 4 -192 0
-1 -4 -192 0
1 -4 192 0
-1 4 192 0
5 7 -193 0
-5 -7 -193 0
5 -7 193 0
-5 7 193 0
193 8 -194 0
-193 -8 -194 0
193 -8 194 0
-193 8 194 0
9 10 -195 0
-9 -10 -195 0
9 -10 195 0
-9 10 195 0
195 11 -196 0
-195 -11 -196 0
195 -11 196 0
-195 11 196 0
13 15 -197 0
-13 -15 -197 0
13 -15 197 0
-13 15 197 0
197 16 -198 0
-197 -16 -198 0
197 -16 198 0
-197 16 198 0
17 18 -199 0
-17 -18 -199 0
17 -18 199 0
-17 18 199 0
199 19 -200 0
-199 -19 -200 0
199 -19 200 0
-199 19 200 0
22 23 -201 0
-22 -23 -201 0
22 -23 201 0
-22 23 201 0
192 194 -202 0
-192 -194 -202 0
192 -194 202 0
-192 194 202 0
202 196 -203 0
-202 -196 -203 0
202 -196 203 0
-202 196 203 0
192 198 -204 0
-192 -198 -204 0
192 -198 204 0
-192 198 204 0
204 200 -205 0
-204 -200 -205 0
204 -200 205 0
-204 200 205 0
194 198 -206 0
-194 -198 -206 0
194 -198 206 0
-194 198 206 0
206 201 -207 0
-206 -201 -207 0
206 -201 207 0
-206 201 207 0
196 200 -208 0
-196 -200 -208 0
196 -200 208 0
-196 200 208 0
208 201 -209 0
-208 -201 -209 0
208 -201 209 0
-208 201 209 0
203 205 207 209 0
1 4 -210 0
-1 -4 -210 0
1 -4 210 0
-1 4 210 0
5 7 -211 0
-5 -7 -211 0
5 -7 211 0
-5 7 211 0
211 8 -212 0
-211 -8 -212 0
211 -8 212 0
-211 8 212 0
9 10 -213 0
-9 -10 -213 0
9 -10 213 0
-9 10 213 0
213 12 -214 0
-213 -12 -214 0
213 -12 214 0
-213 12 214 0
13 15 -215 0
-13 -15 -215 0
13 -15 215 0
-13 15 215 0
215 16 -216 0
-215 -16 -216 0
215 -16 216 0
-215 16 216 0
17 18 -217 0
-17 -18 -217 0
17 -18 217 0
-17 18 217 0
217 20 -218 0
-217 -20 -218 0
217 -20 218 0
-217 20 218 0
22 23 -219 0
-22 -23 -219 0
22 -23 219 0
-22 23 219 0
219 24 -220 0
-219 -24 -220 0
219 -24 220 0
-219 24 220 0
210 212 -221 0
-210 -212 -221 0
210 -212 221 0
-210 212 221 0
221 214 -222 0
-221 -214 -222 0
221 -214 222 0
-221 214 222 0
210 216 -223 0
-210 -216 -223 0
210 -216 223 0
-210 216 223 0
223 218 -224 0
-223 -218 -224 0
223 -218 224 0
-223 218 224 0
212 216 -225 0
-212 -216 -225 0
212 -216 225 0
-212 216 225 0
225 220 -226 0
-225 -220 -226 0
225 -220 226 0
-225 220 226 0
214 218 -227 0
-214 -218 -227 0
214 -218 227 0
-214 218 227 0
227 220 -228 0
-227 -220 -228 0
227 -220 228 0
-227 220 228 0
222 224 226 228 0
1 4 -229 0
-1 -4 -229 0
1 -4 229 0
-1 4 229 0
6 7 -230 0
-6 -7 -230 0
6 -7 230 0
-6 7 230 0
9 12 -231 0
-9 -12 -231 0
9 -12 231 0
-9 12 231 0
14 15 -232 0
-14 -15 -232 0
14 -15 232 0
-14 15 232 0
17 20 -233 0
-17 -20 -233 0
17 -20 233 0
-17 20 233 0
22 23 -234 0
-22 -23 -234 0
22 -23 234 0
-22 23 234 0
229 230 -235 0
-229 -230 -235 0
229 -230 235 0
-229 230 235 0
235 231 -236 0
-235 -231 -236 0
235 -231 236 0
-235 231 236 0
229 232 -237 0
-229 -232 -237 0
229 -232 237 0
-229 232 237 0
237 233 -238 0
-237 -233 -238 0
237 -233 238 0
-237 233 238 0
230 232 -239 0
-230 -232 -239 0
230 -232 239 0
-230 232 239 0
239 234 -240 0
-239 -234 -240 0
239 -234 240 0
-239 234 240 0
231 233 -241 0
-231 -233 -241 0
231 -233 241 0
-231 233 241 0
241 234 -242 0
-241 -234 -242 0
241 -234 242 0
-241 234 242 0
236 238 240 242 0
1 4 -243 0
-1 -4 -243 0
1 -4 243 0
-1 4 243 0
6 7 -244 0
-6 -7 -244 0
6 -7 244 0
-6 7 244 0
9 11 -245 0
-9 -11 -245 0
9 -11 245 0
-9 11 245 0
245 12 -246 0
-245 -12 -246 0
245 -12 246 0
-245 12 246 0
14 15 -247 0
-14 -15 -247 0
14 -15 247 0
-14 15 247 0
17 19 -248 0
-17 -19 -248 0
17 -19 248 0
-17 19 248 0
248 20 -249 0
-248 -20 -249 0
248 -20 249 0
-248 20 249 0
22 23 -250 0
-22 -23 -250 0
22 -23 250 0
-22 23 250 0
250 24 -251 0
-250 -24 -251 0
250 -24 251 0
-250 24 251 0
243 244 -252 0
-243 -244 -252 0
243 -244 252 0
-243 244 252 0
252 246 -253 0
-252 -246 -253 0
252 -246 253 0
-252 246 253 0
243 247 -254 0
-243 -247 -254 0
243 -247 254 0
-243 247 254 0
254 249 -255 0
-254 -249 -255 0
254 -249 255 0
-254 249 255 0
244 247 -256 0
-244 -247 -256 0
244 -247 256 0
-244 247 256 0
256 251 -257 0
-256 -251 -257 0
256 -251 257 0
-256 251 257 0
246 249 -258 0
-246 -249 -258 0
246 -249 258 0
-246 249 258 0
258 251 -259 0
-258 -251 -259 0
258 -251 259 0
-258 251 259 0
253 255 257 259 0
1 4 -260 0
-1 -4 -260 0
1 -4 260 0
-1 4 260 0
6 7 -261 0
-6 -7 -261 0
6 -7 261 0
-6 7 261 0
10 11 -262 0
-10 -11 -262 0
10 -11 262 0
-10 11 262 0
14 15 -263 0
-14 -15 -263 0
14 -15 263 0
-14 15 263 0
18 19 -264 0
-18 -19 -264 0
18 -19 264 0
-18 19 264 0
21 24 -265 0
-21 -24 -265 0
21 -24 265 0
-21 24 265 0
260 261 -266 0
-260 -261 -266 0
260 -261 266 0
-260 261 266 0
266 262 -267 0
-266 -262 -267 0
266 -262 267 0
-266 262 267 0
260 263 -268 0
-260 -263 -268 0
260 -263 268 0
-260 263 268 0
268 264 -269 0
-268 -264 -269 0
268 -264 269 0
-268 264 269 0
261 263 -270 0
-261 -263 -270 0
261 -263 270 0
-261 263 270 0
270 265 -271 0
-270 -265 -271 0
270 -265 271 0
-270 265 271 0
262 264 -272 0
-262 -264 -272 0
262 -264 272 0
-262 264 272 0
272 265 -273 0
-272 -265 -273 0
272 -265 273 0
-272 265 273 0
267 269 271 273 0
1 4 -274 0
-1 -4 -274 0
1 -4 274 0
-1 4 274 0
6 7 -275 0
-6 -7 -275 0
6 -7 275 0
-6 7 275 0
10 11 -276 0
-10 -11 -276 0
10 -11 276 0
-10 11 276 0
276 12 -277 0
-276 -12 -277 0
276 -12 277 0
-276 12 277 0
14 15 -278 0
-14 -15 -278 0
14 -15 278 0
-14 15 278 0
18 19 -279 0
-18 -19 -279 0
18 -19 279 0
-18 19 279 0
279 20 -280 0
-279 -20 -280 0
279 -20 280 0
-279 20 280 0
21 23 -281 0
-21 -23 -281 0
21 -23 281 0
-21 23 281 0
281 24 -282 0
-281 -24 -282 0
281 -24 282 0
-281 24 282 0
274 275 -283 0
-274 -275 -283 0
274 -275 283 0
-274 275 283 0
283 277 -284 0
-283 -277 -284 0
283 -277 284 0
-283 277 284 0
274 278 -285 0
-274 -278 -285 0
274 -278 285 0
-274 278 285 0
285 280 -286 0
-285 -280 -286 0
285 -280 286 0
-285 280 286 0
275 278 -287 0
-275 -278 -287 0
275 -278 287 0
-275 278 287 0
287 282 -288 0
-287 -282 -288 0
287 -282 288 0
-287 282 288 0
277 280 -289 0
-277 -280 -289 0
277 -280 289 0
-277 280 289 0
289 282 -290 0
-289 -282 -290 0
289 -282 290 0
-289 282 290 0
284 286 288 290 0
1 4 -291 0
-1 -4 -291 0
1 -4 291 0
-1 4 291 0
6 7 -292 0
-6 -7 -292 0
6 -7 292 0
-6 7 292 0
9 10 -293 0
-9 -10 -293 0
9 -10 293 0
-9 10 293 0
293 11 -294 0
-293 -11 -294 0
293 -11 294 0
-293 11 294 0
14 15 -295 0
-14 -15 -295 0
14 -15 295 0
-14 15 295 0
17 18 -296 0
-17 -18 -296 0
17 -18 296 0
-17 18 296 0
296 19 -297 0
-296 -19 -297 0
296 -19 297 0
-296 19 297 0
21 22 -298 0
-21 -22 -298 0
21 -22 298 0
-21 22 298 0
298 24 -299 0
-298 -24 -299 0
298 -24 299 0
-298 24 299 0
291 292 -300 0
-291 -292 -300 0
291 -292 300 0
-291 292 300 0
300 294 -301 0
-300 -294 -301 0
300 -294 301 0
-300 294 301 0
291 295 -302 0
-291 -295 -302 0
291 -295 302 0
-291 295 302 0
302 297 -303 0
-302 -297 -303 0
302 -297 303 0
-302 297 303 0
292 295 -304 0
-292 -295 -304 0
292 -295 304 0
-292 295 304 0
304 299 -305 0
-304 -299 -305 0
304 -299 305 0
-304 299 305 0
294 297 -306 0
-294 -297 -306 0
294 -297 306 0
-294 297 306 0
306 299 -307 0
-306 -299 -307 0
306 -299 307 0
-306 299 307 0
301 303 305 307 0
1 4 -308 0
-1 -4 -308 0
1 -4 308 0
-1 4 308 0
6 7 -309 0
-6 -7 -309 0
6 -7 309 0
-6 7 309 0
9 10 -310 0
-9 -10 -310 0
9 -10 310 0
-9 10 310 0
310 12 -311 0
-310 -12 -311 0
310 -12 311 0
-310 12 311 0
14 15 -312 0
-14 -15 -312 0
14 -15 312 0
-14 15 312 0
17 18 -313 0
-17 -18 -313 0
17 -18 313 0
-17 18 313 0
313 20 -314 0
-313 -20 -314 0
313 -20 314 0
-313 20 314 0
21 22 -315 0
-21 -22 -315 0
21 -22 315 0
-21 22 315 0
315 23 -316 0
-315 -23 -316 0
315 -23 316 0
-315 23 316 0
308 309 -317 0
-308 -309 -317 0
308 -309 317 0
-308 309 317 0
317 311 -318 0
-317 -311 -318 0
317 -311 318 0
-317 311 318 0
308 312 -319 0
-308 -312 -319 0
308 -312 319 0
-308 312 319 0
319 314 -320 0
-319 -314 -320 0
319 -314 320 0
-319 314 320 0
309 312 -321 0
-309 -312 -321 0
309 -312 321 0
-309 312 321 0
321 316 -322 0
-321 -316 -322 0
321 -316 322 0
-321 316 322 0
311 314 -323 0
-311 -314 -323 0
311 -314 323 0
-311 314 323 0
323 316 -324 0
-323 -316 -324 0
323 -316 324 0
-323 316 324 0
318 320 322 324 0
1 4 -325 0
-1 -4 -325 0
1 -4 325 0
-1 4 325 0
6 7 -326 0
-6 -7 -326 0
6 -7 326 0
-6 7 326 0
326 8 -327 0
-326 -8 -327 0
326 -8 327 0
-326 8 327 0
9 12 -328 0
-9 -12 -328 0
9 -12 328 0
-9 12 328 0
14 15 -329 0
-14 -15 -329 0
14 -15 329 0
-14 15 329 0
329 16 -330 0
-329 -16 -330 0
329 -16 330 0
-329 16 330 0
17 20 -331 0
-17 -20 -331 0
17 -20 331 0
-17 20 331 0
21 22 -332 0
-21 -22 -332 0
21 -22 332 0
-21 22 332 0
332 23 -333 0
-332 -23 -333 0
332 -23 333 0
-332 23 333 0
325 327 -334 0
-325 -327 -334 0
325 -327 334 0
-325 327 334 0
334 328 -335 0
-334 -328 -335 0
334 -328 335 0
-334 328 335 0
325 330 -336 0
-325 -330 -336 0
325 -330 336 0
-325 330 336 0
336 331 -337 0
-336 -331 -337 0
336 -331 337 0
-336 331 337 0
327 330 -338 0
-327 -330 -338 0
327 -330 338 0
-327 330 338 0
338 333 -339 0
-338 -333 -339 0
338 -333 339 0
-338 333 339 0
328 331 -340 0
-328 -331 -340 0
328 -331 340 0
-328 331 340 0
340 333 -341 0
-340 -333 -341 0
340 -333 341 0
-340 333 341 0
335 337 339 341 0
1 4 -342 0
-1 -4 -342 0
1 -4 342 0
-1 4 342 0
6 7 -343 0
-6 -7 -343 0
6 -7 343 0
-6 7 343 0
343 8 -344 0
-343 -8 -344 0
343 -8 344 0
-343 8 344 0
9 11 -345 0
-9 -11 -345 0
9 -11 345 0
-9 11 345 0
345 12 -346 0
-345 -12 -346 0
345 -12 346 0
-345 12 346 0
14 15 -347 0
-14 -15 -347 0
14 -15 347 0
-14 15 347 0
347 16 -348 0
-347 -16 -348 0
347 -16 348 0
-347 16 348 0
17 19 -349 0
-17 -19 -349 0
17 -19 349 0
-17 19 349 0
349 20 -350 0
-349 -20 -350 0
349 -20 350 0
-349 20 350 0
21 22 -351 0
-21 -22 -351 0
21 -22 351 0
-21 22 351 0
351 24 -352 0
-351 -24 -352 0
351 -24 352 0
-351 24 352 0
342 344 -353 0
-342 -344 -353 0
342 -344 353 0
-342 344 353 0
353 346 -354 0
-353 -346 -354 0
353 -346 354 0
-353 346 354 0
342 348 -355 0
-342 -348 -355 0
342 -348 355 0
-342 348 355 0
355 350 -356 0
-355 -350 -356 0
355 -350 356 0
-355 350 356 0
344 348 -357 0
-344 -348 -357 0
344 -348 357 0
-344 348 357 0
357 352 -358 0
-357 -352 -358 0
357 -352 358 0
-357 352 358 0
346 350 -359 0
-346 -350 -359 0
346 -350 359 0
-346 350 359 0
359 352 -360 0
-359 -352 -360 0
359 -352 360 0
-359 352 360 0
354 356 358 360 0
1 4 -361 0
-1 -4 -361 0
1 -4 361 0
-1 4 361 0
6 7 -362 0
-6 -7 -362 0
6 -7 362 0
-6 7 362 0
362 8 -363 0
-362 -8 -363 0
362 -8 363 0
-362 8 363 0
10 11 -364 0
-10 -11 -364 0
10 -11 364 0
-10 11 364 0
14 15 -365 0
-14 -15 -365 0
14 -15 365 0
-14 15 365 0
365 16 -366 0
-365 -16 -366 0
365 -16 366 0
-365 16 366 0
18 19 -367 0
-18 -19 -367 0
18 -19 367 0
-18 19 367 0
21 23 -368 0
-21 -23 -368 0
21 -23 368 0
-21 23 368 0
368 24 -369 0
-368 -24 -369 0
368 -24 369 0
-368 24 369 0
361 363 -370 0
-361 -363 -370 0
361 -363 370 0
-361 363 370 0
370 364 -371 0
-370 -364 -371 0
370 -364 371 0
-370 364 371 0
361 366 -372 0
-361 -366 -372 0
361 -366 372 0
-361 366 372 0
372 367 -373 0
-372 -367 -373 0
372 -367 373 0
-372 367 373 0
363 366 -374 0
-363 -366 -374 0
363 -366 374 0
-363 366 374 0
374 369 -375 0
-374 -369 -375 0
374 -369 375 0
-374 369 375 0
364 367 -376 0
-364 -367 -376 0
364 -367 376 0
-364 367 376 0
376 369 -377 0
-376 -369 -377 0
376 -369 377 0
-376 369 377 0
371 373 375 377 0
1 4 -378 0
-1 -4 -378 0
1 -4 378 0
-1 4 378 0
6 7 -379 0
-6 -7 -379 0
6 -7 379 0
-6 7 379 0
379 8 -380 0
-379 -8 -380 0
379 -8 380 0
-379 8 380 0
10 11 -381 0
-10 -11 -381 0
10 -11 381 0
-10 11 381 0
381 12 -382 0
-381 -12 -382 0
381 -12 382 0
-381 12 382 0
14 15 -383 0
-14 -15 -383 0
14 -15 383 0
-14 15 383 0
383 16 -384 0
-383 -16 -384 0
383 -16 384 0
-383 16 384 0
18 19 -385 0
-18 -19 -385 0
18 -19 385 0
-18 19 385 0
385 20 -386 0
-385 -20 -386 0
385 -20 386 0
-385 20 386 0
21 24 -387 0
-21 -24 -387 0
21 -24 387 0
-21 24 387 0
378 380 -388 0
-378 -380 -388 0
378 -380 388 0
-378 380 388 0
388 382 -389 0
-388 -382 -389 0
388 -382 389 0
-388 382 389 0
378 384 -390 0
-378 -384 -390 0
378 -384 390 0
-378 384 390 0
390 386 -391 0
-390 -386 -391 0
390 -386 391 0
-390 386 391 0
380 384 -392 0
-380 -384 -392 0
380 -384 392 0
-380 384 392 0
392 387 -393 0
-392 -387 -393 0
392 -387 393 0
-392 387 393 0
382 386 -394 0
-382 -386 -394 0
382 -386 394 0
-382 386 394 0
394 387 -395 0
-394 -387 -395 0
394 -387 395 0
-394 387 395 0
389 391 393 395 0
1 4 -396 0
-1 -4 -396 0
1 -4 396 0
-1 4 396 0
6 7 -397 0
-6 -7 -397 0
6 -7 397 0
-6 7 397 0
397 8 -398 0
-397 -8 -398 0
397 -8 398 0
-397 8 398 0
9 10 -399 0
-9 -10 -399 0
9 -10 399 0
-9 10 399 0
399 11 -400 0
-399 -11 -400 0
399 -11 400 0
-399 11 400 0
14 15 -401 0
-14 -15 -401 0
14 -15 401 0
-14 15 401 0
401 16 -402 0
-401 -16 -402 0
401 -16 402 0
-401 16 402 0
17 18 -403 0
-17 -18 -403 0
17 -18 403 0
-17 18 403 0
403 19 -404 0
-403 -19 -404 0
403 -19 404 0
-403 19 404 0
22 23 -405 0
-22 -23 -405 0
22 -23 405 0
-22 23 405 0
405 24 -406 0
-405 -24 -406 0
405 -24 406 0
-405 24 406 0
396 398 -407 0
-396 -398 -407 0
396 -398 407 0
-396 398 407 0
407 400 -408 0
-407 -400 -408 0
407 -400 408 0
-407 400 408 0
396 402 -409 0
-396 -402 -409 0
396 -402 409 0
-396 402 409 0
409 404 -410 0
-409 -404 -410 0
409 -404 410 0
-409 404 410 0
398 402 -411 0
-398 -402 -411 0
398 -402 411 0
-398 402 411 0
411 406 -412 0
-411 -406 -412 0
411 -406 412 0
-411 406 412 0
400 404 -413 0
-400 -404 -413 0
400 -404 413 0
-400 404 413 0
413 406 -414 0
-413 -406 -414 0
413 -406 414 0
-413 406 414 0
408 410 412 414 0
1 4 -415 0
-1 -4 -415 0
1 -4 415 0
-1 4 415 0
6 7 -416 0
-6 -7 -416 0
6 -7 416 0
-6 7 416 0
416 8 -417 0
-416 -8 -417 0
416 -8 417 0
-416 8 417 0
9 10 -418 0
-9 -10 -418 0
9 -10 418 0
-9 10 418 0
418 12 -419 0
-418 -12 -419 0
418 -12 419 0
-418 12 419 0
14 15 -420 0
-14 -15 -420 0
14 -15 420 0
-14 15 420 0
420 16 -421 0
-420 -16 -421 0
420 -16 421 0
-420 16 421 0
17 18 -422 0
-17 -18 -422 0
17 -18 422 0
-17 18 422 0
422 20 -423 0
-422 -20 -423 0
422 -20 423 0
-422 20 423 0
22 23 -424 0
-22 -23 -424 0
22 -23 424 0
-22 23 424 0
415 417 -425 0
-415 -417 -425 0
415 -417 425 0
-415 417 425 0
425 419 -426 0
-425 -419 -426 0
425 -419 426 0
-425 419 426 0
415 421 -427 0
-415 -421 -427 0
415 -421 427 0
-415 421 427 0
427 423 -428 0
-427 -423 -428 0
427 -423 428 0
-427 423 428 0
417 421 -429 0
-417 -421 -429 0
417 -421 429 0
-417 421 429 0
429 424 -430 0
-429 -424 -430 0
429 -424 430 0
-429 424 430 0
419 423 -431 0
-419 -423 -431 0
419 -423 431 0
-419 423 431 0
431 424 -432 0
-431 -424 -432 0
431 -424 432 0
-431 424 432 0
426 428 430 432 0
1 4 -433 0
-1 -4 -433 0
1 -4 433 0
-1 4 433 0
5 6 -434 0
-5 -6 -434 0
5 -6 434 0
-5 6 434 0
434 7 -435 0
-434 -7 -435 0
434 -7 435 0
-434 7 435 0
9 12 -436 0
-9 -12 -436 0
9 -12 436 0
-9 12 436 0
13 14 -437 0
-13 -14 -437 0
13 -14 437 0
-13 14 437 0
437 15 -438 0
-437 -15 -438 0
437 -15 438 0
-437 15 438 0
17 20 -439 0
-17 -20 -439 0
17 -20 439 0
-17 20 439 0
22 23 -440 0
-22 -23 -440 0
22 -23 440 0
-22 23 440 0
440 24 -441 0
-440 -24 -441 0
440 -24 441 0
-440 24 441 0
433 435 -442 0
-433 -435 -442 0
433 -435 442 0
-433 435 442 0
442 436 -443 0
-442 -436 -443 0
442 -436 443 0
-442 436 443 0
433 438 -444 0
-433 -438 -444 0
433 -438 444 0
-433 438 444 0
444 439 -445 0
-444 -439 -445 0
444 -439 445 0
-444 439 445 0
435 438 -446 0
-435 -438 -446 0
435 -438 446 0
-435 438 446 0
446 441 -447 0
-446 -441 -447 0
446 -441 447 0
-446 441 447 0
436 439 -448 0
-436 -439 -448 0
436 -439 448 0
-436 439 448 0
448 441 -449 0
-448 -441 -449 0
448 -441 449 0
-448 441 449 0
443 445 447 449 0
1 4 -450 0
-1 -4 -450 0
1 -4 450 0
-1 4 450 0
5 6 -451 0
-5 -6 -451 0
5 -6 451 0
-5 6 451 0
451 7 -452 0
-451 -7 -452 0
451 -7 452 0
-451 7 452 0
9 11 -453 0
-9 -11 -453 0
9 -11 453 0
-9 11 453 0
453 12 -454 0
-453 -12 -454 0
453 -12 454 0
-453 12 454 0
13 14 -455 0
-13 -14 -455 0
13 -14 455 0
-13 14 455 0
455 15 -456 0
-455 -15 -456 0
455 -15 456 0
-455 15 456 0
17 19 -457 0
-17 -19 -457 0
17 -19 457 0
-17 19 457 0
457 20 -458 0
-457 -20 -458 0
457 -20 458 0
-457 20 458 0
22 23 -459 0
-22 -23 -459 0
22 -23 459 0
-22 23 459 0
450 452 -460 0
-450 -452 -460 0
450 -452 460 0
-450 452 460 0
460 454 -461 0
-460 -454 -461 0
460 -454 461 0
-460 454 461 0
450 456 -462 0
-450 -456 -462 0
450 -456 462 0
-450 456 462 0
462 458 -463 0
-462 -458 -463 0
462 -458 463 0
-462 458 463 0
452 456 -464 0
-452 -456 -464 0
452 -456 464 0
-452 456 464 0
464 459 -465 0
-464 -459 -465 0
464 -459 465 0
-464 459 465 0
454 458 -466 0
-454 -458 -466 0
454 -458 466 0
-454 458 466 0
466 459 -467 0
-466 -459 -467 0
466 -459 467 0
-466 459 467 0
461 463 465 467 0
1 4 -468 0
-1 -4 -468 0
1 -4 468 0
-1 4 468 0
5 6 -469 0
-5 -6 -469 0
5 -6 469 0
-5 6 469 0
469 7 -470 0
-469 -7 -470 0
469 -7 470 0
-469 7 470 0
10 11 -471 0
-10 -11 -471 0
10 -11 471 0
-10 11 471 0
13 14 -472 0
-13 -14 -472 0
13 -14 472 0
-13 14 472 0
472 15 -473 0
-472 -15 -473 0
472 -15 473 0
-472 15 473 0
18 19 -474 0
-18 -19 -474 0
18 -19 474 0
-18 19 474 0
21 22 -475 0
-21 -22 -475 0
21 -22 475 0
-21 22 475 0
475 24 -476 0
-475 -24 -476 0
475 -24 476 0
-475 24 476 0
468 470 -477 0
-468 -470 -477 0
468 -470 477 0
-468 470 477 0
477 471 -478 0
-477 -471 -478 0
477 -471 478 0
-477 471 478 0
468 473 -479 0
-468 -473 -479 0
468 -473 479 0
-468 473 479 0
479 474 -480 0
-479 -474 -480 0
479 -474 480 0
-479 474 480 0
470 473 -481 0
-470 -473 -481 0
470 -473 481 0
-470 473 481 0
481 476 -482 0
-481 -476 -482 0
481 -476 482 0
-481 476 482 0
471 474 -483 0
-471 -474 -483 0
471 -474 483 0
-471 474 483 0
483 476 -484 0
-483 -476 -484 0
483 -476 484 0
-483 476 484 0
478 480 482 484 0
1 4 -485 0
-1 -4 -485 0
1 -4 485 0
-1 4 485 0
5 6 -486 0
-5 -6 -486 0
5 -6 486 0
-5 6 486 0
486 7 -487 0
-486 -7 -487 0
486 -7 487 0
-486 7 487 0
10 11 -488 0
-10 -11 -488 0
10 -11 488 0
-10 11 488 0
488 12 -489 0
-488 -12 -489 0
488 -12 489 0
-488 12 489 0
13 14 -490 0
-13 -14 -490 0
13 -14 490 0
-13 14 490 0
490 15 -491 0
-490 -15 -491 0
490 -15 491 0
-490 15 491 0
18 19 -492 0
-18 -19 -492 0
18 -19 492 0
-18 19 492 0
492 20 -493 0
-492 -20 -493 0
492 -20 493 0
-492 20 493 0
21 22 -494 0
-21 -22 -494 0
21 -22 494 0
-21 22 494 0
494 23 -495 0
-494 -23 -495 0
494 -23 495 0
-494 23 495 0
485 487 -496 0
-485 -487 -496 0
485 -487 496 0
-485 487 496 0
496 489 -497 0
-496 -489 -497 0
496 -489 497 0
-496 489 497 0
485 491 -498 0
-485 -491 -498 0
485 -491 498 0
-485 491 498 0
498 493 -499 0
-498 -493 -499 0
498 -493 499 0
-498 493 499 0
487 491 -500 0
-487 -491 -500 0
487 -491 500 0
-487 491 500 0
500 495 -501 0
-500 -495 -501 0
500 -495 501 0
-500 495 501 0
489 493 -502 0
-489 -493 -502 0
489 -493 502 0
-489 493 502 0
502 495 -503 0
-502 -495 -503 0
502 -495 503 0
-502 495 503 0
497 499 501 503 0
1 4 -504 0
-1 -4 -504 0
1 -4 504 0
-1 4 504 0
5 6 -505 0
-5 -6 -505 0
5 -6 505 0
-5 6 505 0
505 7 -506 0
-505 -7 -506 0
505 -7 506 0
-505 7 506 0
9 10 -507 0
-9 -10 -507 0
9 -10 507 0
-9 10 507 0
507 11 -508 0
-507 -11 -508 0
507 -11 508 0
-507 11 508 0
13 14 -509 0
-13 -14 -509 0
13 -14 509 0
-13 14 509 0
509 15 -510 0
-509 -15 -510 0
509 -15 510 0
-509 15 510 0
17 18 -511 0
-17 -18 -511 0
17 -18 511 0
-17 18 511 0
511 19 -512 0
-511 -19 -512 0
511 -19 512 0
-511 19 512 0
21 24 -513 0
-21 -24 -513 0
21 -24 513 0
-21 24 513 0
504 506 -514 0
-504 -506 -514 0
504 -506 514 0
-504 506 514 0
514 508 -515 0
-514 -508 -515 0
514 -508 515 0
-514 508 515 0
504 510 -516 0
-504 -510 -516 0
504 -510 516 0
-504 510 516 0
516 512 -517 0
-516 -512 -517 0
516 -512 517 0
-516 512 517 0
506 510 -518 0
-506 -510 -518 0
506 -510 518 0
-506 510 518 0
518 513 -519 0
-518 -513 -519 0
518 -513 519 0
-518 513 519 0
508 512 -520 0
-508 -512 -520 0
508 -512 520 0
-508 512 520 0
520 513 -521 0
-520 -513 -521 0
520 -513 521 0
-520 513 521 0
515 517 519 521 0
1 4 -522 0
-1 -4 -522 0
1 -4 522 0
-1 4 522 0
5 6 -523 0
-5 -6 -523 0
5 -6 523 0
-5 6 523 0
523 7 -524 0
-523 -7 -524 0
523 -7 524 0
-523 7 524 0
9 10 -525 0
-9 -10 -525 0
9 -10 525 0
-9 10 525 0
525 12 -526 0
-525 -12 -526 0
525 -12 526 0
-525 12 526 0
13 14 -527 0
-13 -14 -527 0
13 -14 527 0
-13 14 527 0
527 15 -528 0
-527 -15 -528 0
527 -15 528 0
-527 15 528 0
17 18 -529 0
-17 -18 -529 0
17 -18 529 0
-17 18 529 0
529 20 -530 0
-529 -20 -530 0
529 -20 530 0
-529 20 530 0
21 23 -531 0
-21 -23 -531 0
21 -23 531 0
-21 23 531 0
531 24 -532 0
-531 -24 -532 0
531 -24 532 0
-531 24 532 0
522 524 -533 0
-522 -524 -533 0
522 -524 533 0
-522 524 533 0
533 526 -534 0
-533 -526 -534 0
533 -526 534 0
-533 526 534 0
522 528 -535 0
-522 -528 -535 0
522 -528 535 0
-522 528 535 0
535 530 -536 0
-535 -530 -536 0
535 -530 536 0
-535 530 536 0
524 528 -537 0
-524 -528 -537 0
524 -528 537 0
-524 528 537 0
537 532 -538 0
-537 -532 -538 0
537 -532 538 0
-537 532 538 0
526 530 -539 0
-526 -530 -539 0
526 -530 539 0
-526 530 539 0
539 532 -540 0
-539 -532 -540 0
539 -532 540 0
-539 532 540 0
534 536 538 540 0
1 4 -541 0
-1 -4 -541 0
1 -4 541 0
-1 4 541 0
5 6 -542 0
-5 -6 -542 0
5 -6 542 0
-5 6 542 0
542 8 -543 0
-542 -8 -543 0
542 -8 543 0
-542 8 543 0
9 12 -544 0
-9 -12 -544 0
9 -12 544 0
-9 12 544 0
13 14 -545 0
-13 -14 -545 0
13 -14 545 0
-13 14 545 0
545 16 -546 0
-545 -16 -546 0
545 -16 546 0
-545 16 546 0
17 20 -547 0
-17 -20 -547 0
17 -20 547 0
-17 20 547 0
21 22 -548 0
-21 -22 -548 0
21 -22 548 0
-21 22 548 0
548 24 -549 0
-548 -24 -549 0
548 -24 549 0
-548 24 549 0
541 543 -550 0
-541 -543 -550 0
541 -543 550 0
-541 543 550 0
550 544 -551 0
-550 -544 -551 0
550 -544 551 0
-550 544 551 0
541 546 -552 0
-541 -546 -552 0
541 -546 552 0
-541 546 552 0
552 547 -553 0
-552 -547 -553 0
552 -547 553 0
-552 547 553 0
543 546 -554 0
-543 -546 -554 0
543 -546 554 0
-543 546 554 0
554 549 -555 0
-554 -549 -555 0
554 -549 555 0
-554 549 555 0
544 547 -556 0
-544 -547 -556 0
544 -547 556 0
-544 547 556 0
556 549 -557 0
-556 -549 -557 0
556 -549 557 0
-556 549 557 0
551 553 555 557 0
1 4 -558 0
-1 -4 -558 0
1 -4 558 0
-1 4 558 0
5 6 -559 0
-5 -6 -559 0
5 -6 559 0
-5 6 559 0
559 8 -560 0
-559 -8 -560 0
559 -8 560 0
-559 8 560 0
9 11 -561 0
-9 -11 -561 0
9 -11 561 0
-9 11 561 0
561 12 -562 0
-561 -12 -562 0
561 -12 562 0
-561 12 562 0
13 14 -563 0
-13 -14 -563 0
13 -14 563 0
-13 14 563 0
563 16 -564 0
-563 -16 -564 0
563 -16 564 0
-563 16 564 0
17 19 -565 0
-17 -19 -565 0
17 -19 565 0
-17 19 565 0
565 20 -566 0
-565 -20 -566 0
565 -20 566 0
-565 20 566 0
21 22 -567 0
-21 -22 -567 0
21 -22 567 0
-21 22 567 0
567 23 -568 0
-567 -23 -568 0
567 -23 568 0
-567 23 568 0
558 560 -569 0
-558 -560 -569 0
558 -560 569 0
-558 560 569 0
569 562 -570 0
-569 -562 -570 0
569 -562 570 0
-569 562 570 0
558 564 -571 0
-558 -564 -571 0
558 -564 571 0
-558 564 571 0
571 566 -572 0
-571 -566 -572 0
571 -566 572 0
-571 566 572 0
560 564 -573 0
-560 -564 -573 0
560 -564 573 0
-560 564 573 0
573 568 -574 0
-573 -568 -574 0
573 -568 574 0
-573 568 574 0
562 566 -575 0
-562 -566 -575 0
562 -566 575 0
-562 566 575 0
575 568 -576 0
-575 -568 -576 0
575 -568 576 0
-575 568 576 0
570 572 574 576 0
1 4 -577 0
-1 -4 -577 0
1 -4 577 0
-1 4 577 0
5 6 -578 0
-5 -6 -578 0
5 -6 578 0
-5 6 578 0
578 8 -579 0
-578 -8 -579 0
578 -8 579 0
-578 8 579 0
10 11 -580 0
-10 -11 -580 0
10 -11 580 0
-10 11 580 0
13 14 -581 0
-13 -14 -581 0
13 -14 581 0
-13 14 581 0
581 16 -582 0
-581 -16 -582 0
581 -16 582 0
-581 16 582 0
18 19 -583 0
-18 -19 -583 0
18 -19 583 0
-18 19 583 0
22 23 -584 0
-22 -23 -584 0
22 -23 584 0
-22 23 584 0
584 24 -585 0
-584 -24 -585 0
584 -24 585 0
-584 24 585 0
577 579 -586 0
-577 -579 -586 0
577 -579 586 0
-577 579 586 0
586 580 -587 0
-586 -580 -587 0
586 -580 587 0
-586 580 587 0
577 582 -588 0
-577 -582 -588 0
577 -582 588 0
-577 582 588 0
588 583 -589 0
-588 -583 -589 0
588 -583 589 0
-588 583 589 0
579 582 -590 0
-579 -582 -590 0
579 -582 590 0
-579 582 590 0
590 585 -591 0
-590 -585 -591 0
590 -585 591 0
-590 585 591 0
580 583 -592 0
-580 -583 -592 0
580 -583 592 0
-580 583 592 0
592 585 -593 0
-592 -585 -593 0
592 -585 593 0
-592 585 593 0
587 589 591 593 0
1 4 -594 0
-1 -4 -594 0
1 -4 594 0
-1 4 594 0
5 6 -595 0
-5 -6 -595 0
5 -6 595 0
-5 6 595 0
595 8 -596 0
-595 -8 -596 0
595 -8 596 0
-595 8 596 0
10 11 -597 0
-10 -11 -597 0
10 -11 597 0
-10 11 597 0
597 12 -598 0
-597 -12 -598 0
597 -12 598 0
-597 12 598 0
13 14 -599 0
-13 -14 -599 0
13 -14 599 0
-13 14 599 0
599 16 -600 0
-599 -16 -600 0
599 -16 600 0
-599 16 600 0
18 19 -601 0
-18 -19 -601 0
18 -19 601 0
-18 19 601 0
601 20 -602 0
-601 -20 -602 0
601 -20 602 0
-601 20 602 0
22 23 -603 0
-22 -23 -603 0
22 -23 603 0
-22 23 603 0
594 596 -604 0
-594 -596 -604 0
594 -596 604 0
-594 596 604 0
604 598 -605 0
-604 -598 -605 0
604 -598 605 0
-604 598 605 0
594 600 -606 0
-594 -600 -606 0
594 -600 606 0
-594 600 606 0
606 602 -607 0
-606 -602 -607 0
606 -602 607 0
-606 602 607 0
596 600 -608 0
-596 -600 -608 0
596 -600 608 0
-596 600 608 0
608 603 -609 0
-608 -603 -609 0
608 -603 609 0
-608 603 609 0
598 602 -610 0
-598 -602 -610 0
598 -602 610 0
-598 602 610 0
610 603 -611 0
-610 -603 -611 0
610 -603 611 0
-610 603 611 0
605 607 609 611 0
1 4 -612 0
-1 -4 -612 0
1 -4 612 0
-1 4 612 0
5 6 -613 0
-5 -6 -613 0
5 -6 613 0
-5 6 613 0
613 8 -614 0
-613 -8 -614 0
613 -8 614 0
-613 8 614 0
9 10 -615 0
-9 -10 -615 0
9 -10 615 0
-9 10 615 0
615 11 -616 0
-615 -11 -616 0
615 -11 616 0
-615 11 616 0
13 14 -617 0
-13 -14 -617 0
13 -14 617 0
-13 14 617 0
617 16 -618 0
-617 -16 -618 0
617 -16 618 0
-617 16 618 0
17 18 -619 0
-17 -18 -619 0
17 -18 619 0
-17 18 619 0
619 19 -620 0
-619 -19 -620 0
619 -19 620 0
-619 19 620 0
21 23 -621 0
-21 -23 -621 0
21 -23 621 0
-21 23 621 0
621 24 -622 0
-621 -24 -622 0
621 -24 622 0
-621 24 622 0
612 614 -623 0
-612 -614 -623 0
612 -614 623 0
-612 614 623 0
623 616 -624 0
-623 -616 -624 0
623 -616 624 0
-623 616 624 0
612 618 -625 0
-612 -618 -625 0
612 -618 625 0
-612 618 625 0
625 620 -626 0
-625 -620 -626 0
625 -620 626 0
-625 620 626 0
614 618 -627 0
-614 -618 -627 0
614 -618 627 0
-614 618 627 0
627 622 -628 0
-627 -622 -628 0
627 -622 628 0
-627 622 628 0
616 620 -629 0
-616 -620 -629 0
616 -620 629 0
-616 620 629 0
629 622 -630 0
-629 -622 -630 0
629 -622 630 0
-629 622 630 0
624 626 628 630 0
1 4 -631 0
-1 -4 -631 0
1 -4 631 0
-1 4 631 0
5 6 -632 0
-5 -6 -632 0
5 -6 632 0
-5 6 632 0
632 8 -633 0
-632 -8 -633 0
632 -8 633 0
-632 8 633 0
9 10 -634 0
-9 -10 -634 0
9 -10 634 0
-9 10 634 0
634 12 -635 0
-634 -12 -635 0
634 -12 635 0
-634 12 635 0
13 14 -636 0
-13 -14 -636 0
13 -14 636 0
-13 14 636 0
636 16 -637 0
-636 -16 -637 0
636 -16 637 0
-636 16 637 0
17 18 -638 0
-17 -18 -638 0
17 -18 638 0
-17 18 638 0
638 20 -639 0
-638 -20 -639 0
638 -20 639 0
-638 20 639 0
21 24 -640 0
-21 -24 -640 0
21 -24 640 0
-21 24 640 0
631 633 -641 0
-631 -633 -641 0
631 -633 641 0
-631 633 641 0
641 635 -642 0
-641 -635 -642 0
641 -635 642 0
-641 635 642 0
631 637 -643 0
-631 -637 -643 0
631 -637 643 0
-631 637 643 0
643 639 -644 0
-643 -639 -644 0
643 -639 644 0
-643 639 644 0
633 637 -645 0
-633 -637 -645 0
633 -637 645 0
-633 637 645 0
645 640 -646 0
-645 -640 -646 0
645 -640 646 0
-645 640 646 0
635 639 -647 0
-635 -639 -647 0
635 -639 647 0
-635 639 647 0
647 640 -648 0
-647 -640 -648 0
647 -640 648 0
-647 640 648 0
642 644 646 648 0
1 3 -649 0
-1 -3 -649 0
1 -3 649 0
-1 3 649 0
649 4 -650 0
-649 -4 -650 0
649 -4 650 0
-649 4 650 0
5 8 -651 0
-5 -8 -651 0
5 -8 651 0
-5 8 651 0
9 12 -652 0
-9 -12 -652 0
9 -12 652 0
-9 12 652 0
13 15 -653 0
-13 -15 -653 0
13 -15 653 0
-13 15 653 0
653 16 -654 0
-653 -16 -654 0
653 -16 654 0
-653 16 654 0
17 19 -655 0
-17 -19 -655 0
17 -19 655 0
-17 19 655 0
655 20 -656 0
-655 -20 -656 0
655 -20 656 0
-655 20 656 0
21 24 -657 0
-21 -24 -657 0
21 -24 657 0
-21 24 657 0
650 651 -658 0
-650 -651 -658 0
650 -651 658 0
-650 651 658 0
658 652 -659 0
-658 -652 -659 0
658 -652 659 0
-658 652 659 0
650 654 -660 0
-650 -654 -660 0
650 -654 660 0
-650 654 660 0
660 656 -661 0
-660 -656 -661 0
660 -656 661 0
-660 656 661 0
651 654 -662 0
-651 -654 -662 0
651 -654 662 0
-651 654 662 0
662 657 -663 0
-662 -657 -663 0
662 -657 663 0
-662 657 663 0
652 656 -664 0
-652 -656 -664 0
652 -656 664 0
-652 656 664 0
664 657 -665 0
-664 -657 -665 0
664 -657 665 0
-664 657 665 0
659 661 663 665 0
1 3 -666 0
-1 -3 -666 0
1 -3 666 0
-1 3 666 0
666 4 -667 0
-666 -4 -667 0
666 -4 667 0
-666 4 667 0
5 8 -668 0
-5 -8 -668 0
5 -8 668 0
-5 8 668 0
9 11 -669 0
-9 -11 -669 0
9 -11 669 0
-9 11 669 0
669 12 -670 0
-669 -12 -670 0
669 -12 670 0
-669 12 670 0
13 15 -671 0
-13 -15 -671 0
13 -15 671 0
-13 15 671 0
671 16 -672 0
-671 -16 -672 0
671 -16 672 0
-671 16 672 0
17 20 -673 0
-17 -20 -673 0
17 -20 673 0
-17 20 673 0
21 23 -674 0
-21 -23 -674 0
21 -23 674 0
-21 23 674 0
674 24 -675 0
-674 -24 -675 0
674 -24 675 0
-674 24 675 0
667 668 -676 0
-667 -668 -676 0
667 -668 676 0
-667 668 676 0
676 670 -677 0
-676 -670 -677 0
676 -670 677 0
-676 670 677 0
667 672 -678 0
-667 -672 -678 0
667 -672 678 0
-667 672 678 0
678 673 -679 0
-678 -673 -679 0
678 -673 679 0
-678 673 679 0
668 672 -680 0
-668 -672 -680 0
668 -672 680 0
-668 672 680 0
680 675 -681 0
-680 -675 -681 0
680 -675 681 0
-680 675 681 0
670 673 -682 0
-670 -673 -682 0
670 -673 682 0
-670 673 682 0
682 675 -683 0
-682 -675 -683 0
682 -675 683 0
-682 675 683 0
677 679 681 683 0
1 3 -684 0
-1 -3 -684 0
1 -3 684 0
-1 3 684 0
684 4 -685 0
-684 -4 -685 0
684 -4 685 0
-684 4 685 0
5 8 -686 0
-5 -8 -686 0
5 -8 686 0
-5 8 686 0
10 11 -687 0
-10 -11 -687 0
10 -11 687 0
-10 11 687 0
13 15 -688 0
-13 -15 -688 0
13 -15 688 0
-13 15 688 0
688 16 -689 0
-688 -16 -689 0
688 -16 689 0
-688 16 689 0
17 18 -690 0
-17 -18 -690 0
17 -18 690 0
-17 18 690 0
690 19 -691 0
-690 -19 -691 0
690 -19 691 0
-690 19 691 0
22 23 -692 0
-22 -23 -692 0
22 -23 692 0
-22 23 692 0
685 686 -693 0
-685 -686 -693 0
685 -686 693 0
-685 686 693 0
693 687 -694 0
-693 -687 -694 0
693 -687 694 0
-693 687 694 0
685 689 -695 0
-685 -689 -695 0
685 -689 695 0
-685 689 695 0
695 691 -696 0
-695 -691 -696 0
695 -691 696 0
-695 691 696 0
686 689 -697 0
-686 -689 -697 0
686 -689 697 0
-686 689 697 0
697 692 -698 0
-697 -692 -698 0
697 -692 698 0
-697 692 698 0
687 691 -699 0
-687 -691 -699 0
687 -691 699 0
-687 691 699 0
699 692 -700 0
-699 -692 -700 0
699 -692 700 0
-699 692 700 0
694 696 698 700 0
1 3 -701 0
-1 -3 -701 0
1 -3 701 0
-1 3 701 0
701 4 -702 0
-701 -4 -702 0
701 -4 702 0
-701 4 702 0
5 8 -703 0
-5 -8 -703 0
5 -8 703 0
-5 8 703 0
10 11 -704 0
-10 -11 -704 0
10 -11 704 0
-10 11 704 0
704 12 -705 0
-704 -12 -705 0
704 -12 705 0
-704 12 705 0
13 15 -706 0
-13 -15 -706 0
13 -15 706 0
-13 15 706 0
706 16 -707 0
-706 -16 -707 0
706 -16 707 0
-706 16 707 0
17 18 -708 0
-17 -18 -708 0
17 -18 708 0
-17 18 708 0
708 20 -709 0
-708 -20 -709 0
708 -20 709 0
-708 20 709 0
22 23 -710 0
-22 -23 -710 0
22 -23 710 0
-22 23 710 0
710 24 -711 0
-710 -24 -711 0
710 -24 711 0
-710 24 711 0
702 703 -712 0
-702 -703 -712 0
702 -703 712 0
-702 703 712 0
712 705 -713 0
-712 -705 -713 0
712 -705 713 0
-712 705 713 0
702 707 -714 0
-702 -707 -714 0
702 -707 714 0
-702 707 714 0
714 709 -715 0
-714 -709 -715 0
714 -709 715 0
-714 709 715 0
703 707 -716 0
-703 -707 -716 0
703 -707 716 0
-703 707 716 0
716 711 -717 0
-716 -711 -717 0
716 -711 717 0
-716 711 717 0
705 709 -718 0
-705 -709 -718 0
705 -709 718 0
-705 709 718 0
718 711 -719 0
-718 -711 -719 0
718 -711 719 0
-718 711 719 0
713 715 717 719 0
1 3 -720 0
-1 -3 -720 0
1 -3 720 0
-1 3 720 0
720 4 -721 0
-720 -4 -721 0
720 -4 721 0
-720 4 721 0
5 8 -722 0
-5 -8 -722 0
5 -8 722 0
-5 8 722 0
9 10 -723 0
-9 -10 -723 0
9 -10 723 0
-9 10 723 0
723 11 -724 0
-723 -11 -724 0
723 -11 724 0
-723 11 724 0
13 15 -725 0
-13 -15 -725 0
13 -15 725 0
-13 15 725 0
725 16 -726 0
-725 -16 -726 0
725 -16 726 0
-725 16 726 0
18 19 -727 0
-18 -19 -727 0
18 -19 727 0
-18 19 727 0
21 22 -728 0
-21 -22 -728 0
21 -22 728 0
-21 22 728 0
728 23 -729 0
-728 -23 -729 0
728 -23 729 0
-728 23 729 0
721 722 -730 0
-721 -722 -730 0
721 -722 730 0
-721 722 730 0
730 724 -731 0
-730 -724 -731 0
730 -724 731 0
-730 724 731 0
721 726 -732 0
-721 -726 -732 0
721 -726 732 0
-721 726 732 0
732 727 -733 0
-732 -727 -733 0
732 -727 733 0
-732 727 733 0
722 726 -734 0
-722 -726 -734 0
722 -726 734 0
-722 726 734 0
734 729 -735 0
-734 -729 -735 0
734 -729 735 0
-734 729 735 0
724 727 -736 0
-724 -727 -736 0
724 -727 736 0
-724 727 736 0
736 729 -737 0
-736 -729 -737 0
736 -729 737 0
-736 729 737 0
731 733 735 737 0
1 3 -738 0
-1 -3 -738 0
1 -3 738 0
-1 3 738 0
738 4 -739 0
-738 -4 -739 0
738 -4 739 0
-738 4 739 0
5 8 -740 0
-5 -8 -740 0
5 -8 740 0
-5 8 740 0
9 10 -741 0
-9 -10 -741 0
9 -10 741 0
-9 10 741 0
741 12 -742 0
-741 -12 -742 0
741 -12 742 0
-741 12 742 0
13 15 -743 0
-13 -15 -743 0
13 -15 743 0
-13 15 743 0
743 16 -744 0
-743 -16 -744 0
743 -16 744 0
-743 16 744 0
18 19 -745 0
-18 -19 -745 0
18 -19 745 0
-18 19 745 0
745 20 -746 0
-745 -20 -746 0
745 -20 746 0
-745 20 746 0
21 22 -747 0
-21 -22 -747 0
21 -22 747 0
-21 22 747 0
747 24 -748 0
-747 -24 -748 0
747 -24 748 0
-747 24 748 0
739 740 -749 0
-739 -740 -749 0
739 -740 749 0
-739 740 749 0
749 742 -750 0
-749 -742 -750 0
749 -742 750 0
-749 742 750 0
739 744 -751 0
-739 -744 -751 0
739 -744 751 0
-739 744 751 0
751 746 -752 0
-751 -746 -752 0
751 -746 752 0
-751 746 752 0
740 744 -753 0
-740 -744 -753 0
740 -744 753 0
-740 744 753 0
753 748 -754 0
-753 -748 -754 0
753 -748 754 0
-753 748 754 0
742 746 -755 0
-742 -746 -755 0
742 -746 755 0
-742 746 755 0
755 748 -756 0
-755 -748 -756 0
755 -748 756 0
-755 748 756 0
750 752 754 756 0
1 3 -757 0
-1 -3 -757 0
1 -3 757 0
-1 3 757 0
757 4 -758 0
-757 -4 -758 0
757 -4 758 0
-757 4 758 0
5 7 -759 0
-5 -7 -759 0
5 -7 759 0
-5 7 759 0
759 8 -760 0
-759 -8 -760 0
759 -8 760 0
-759 8 760 0
9 12 -761 0
-9 -12 -761 0
9 -12 761 0
-9 12 761 0
13 16 -762 0
-13 -16 -762 0
13 -16 762 0
-13 16 762 0
17 19 -763 0
-17 -19 -763 0
17 -19 763 0
-17 19 763 0
763 20 -764 0
-763 -20 -764 0
763 -20 764 0
-763 20 764 0
21 23 -765 0
-21 -23 -765 0
21 -23 765 0
-21 23 765 0
765 24 -766 0
-765 -24 -766 0
765 -24 766 0
-765 24 766 0
758 760 -767 0
-758 -760 -767 0
758 -760 767 0
-758 760 767 0
767 761 -768 0
-767 -761 -768 0
767 -761 768 0
-767 761 768 0
758 762 -769 0
-758 -762 -769 0
758 -762 769 0
-758 762 769 0
769 764 -770 0
-769 -764 -770 0
769 -764 770 0
-769 764 770 0
760 762 -771 0
-760 -762 -771 0
760 -762 771 0
-760 762 771 0
771 766 -772 0
-771 -766 -772 0
771 -766 772 0
-771 766 772 0
761 764 -773 0
-761 -764 -773 0
761 -764 773 0
-761 764 773 0
773 766 -774 0
-773 -766 -774 0
773 -766 774 0
-773 766 774 0
768 770 772 774 0
1 3 -775 0
-1 -3 -775 0
1 -3 775 0
-1 3 775 0
775 4 -776 0
-775 -4 -776 0
775 -4 776 0
-775 4 776 0
5 7 -777 0
-5 -7 -777 0
5 -7 777 0
-5 7 777 0
777 8 -778 0
-777 -8 -778 0
777 -8 778 0
-777 8 778 0
9 11 -779 0
-9 -11 -779 0
9 -11 779 0
-9 11 779 0
779 12 -780 0
-779 -12 -780 0
779 -12 780 0
-779 12 780 0
13 16 -781 0
-13 -16 -781 0
13 -16 781 0
-13 16 781 0
17 20 -782 0
-17 -20 -782 0
17 -20 782 0
-17 20 782 0
21 24 -783 0
-21 -24 -783 0
21 -24 783 0
-21 24 783 0
776 778 -784 0
-776 -778 -784 0
776 -778 784 0
-776 778 784 0
784 780 -785 0
-784 -780 -785 0
784 -780 785 0
-784 780 785 0
776 781 -786 0
-776 -781 -786 0
776 -781 786 0
-776 781 786 0
786 782 -787 0
-786 -782 -787 0
786 -782 787 0
-786 782 787 0
778 781 -788 0
-778 -781 -788 0
778 -781 788 0
-778 781 788 0
788 783 -789 0
-788 -783 -789 0
788 -783 789 0
-788 783 789 0
780 782 -790 0
-780 -782 -790 0
780 -782 790 0
-780 782 790 0
790 783 -791 0
-790 -783 -791 0
790 -783 791 0
-790 783 791 0
785 787 789 791 0
1 3 -792 0
-1 -3 -792 0
1 -3 792 0
-1 3 792 0
792 4 -793 0
-792 -4 -793 0
792 -4 793 0
-792 4 793 0
5 7 -794 0
-5 -7 -794 0
5 -7 794 0
-5 7 794 0
794 8 -795 0
-794 -8 -795 0
794 -8 795 0
-794 8 795 0
10 11 -796 0
-10 -11 -796 0
10 -11 796 0
-10 11 796 0
13 16 -797 0
-13 -16 -797 0
13 -16 797 0
-13 16 797 0
17 18 -798 0
-17 -18 -798 0
17 -18 798 0
-17 18 798 0
798 19 -799 0
-798 -19 -799 0
798 -19 799 0
-798 19 799 0
21 22 -800 0
-21 -22 -800 0
21 -22 800 0
-21 22 800 0
800 23 -801 0
-800 -23 -801 0
800 -23 801 0
-800 23 801 0
793 795 -802 0
-793 -795 -802 0
793 -795 802 0
-793 795 802 0
802 796 -803 0
-802 -796 -803 0
802 -796 803 0
-802 796 803 0
793 797 -804 0
-793 -797 -804 0
793 -797 804 0
-793 797 804 0
804 799 -805 0
-804 -799 -805 0
804 -799 805 0
-804 799 805 0
795 797 -806 0
-795 -797 -806 0
795 -797 806 0
-795 797 806 0
806 801 -807 0
-806 -801 -807 0
806 -801 807 0
-806 801 807 0
796 799 -808 0
-796 -799 -808 0
796 -799 808 0
-796 799 808 0
808 801 -809 0
-808 -801 -809 0
808 -801 809 0
-808 801 809 0
803 805 807 809 0
1 3 -810 0
-1 -3 -810 0
1 -3 810 0
-1 3 810 0
810 4 -811 0
-810 -4 -811 0
810 -4 811 0
-810 4 811 0
5 7 -812 0
-5 -7 -812 0
5 -7 812 0
-5 7 812 0
812 8 -813 0
-812 -8 -813 0
812 -8 813 0
-812 8 813 0
10 11 -814 0
-10 -11 -814 0
10 -11 814 0
-10 11 814 0
814 12 -815 0
-814 -12 -815 0
814 -12 815 0
-814 12 815 0
13 16 -816 0
-13 -16 -816 0
13 -16 816 0
-13 16 816 0
17 18 -817 0
-17 -18 -817 0
17 -18 817 0
-17 18 817 0
817 20 -818 0
-817 -20 -818 0
817 -20 818 0
-817 20 818 0
21 22 -819 0
-21 -22 -819 0
21 -22 819 0
-21 22 819 0
819 24 -820 0
-819 -24 -820 0
819 -24 820 0
-819 24 820 0
811 813 -821 0
-811 -813 -821 0
811 -813 821 0
-811 813 821 0
821 815 -822 0
-821 -815 -822 0
821 -815 822 0
-821 815 822 0
811 816 -823 0
-811 -816 -823 0
811 -816 823 0
-811 816 823 0
823 818 -824 0
-823 -818 -824 0
823 -818 824 0
-823 818 824 0
813 816 -825 0
-813 -816 -825 0
813 -816 825 0
-813 816 825 0
825 820 -826 0
-825 -820 -826 0
825 -820 826 0
-825 820 826 0
815 818 -827 0
-815 -818 -827 0
815 -818 827 0
-815 818 827 0
827 820 -828 0
-827 -820 -828 0
827 -820 828 0
-827 820 828 0
822 824 826 828 0
1 3 -829 0
-1 -3 -829 0
1 -3 829 0
-1 3 829 0
829 4 -830 0
-829 -4 -830 0
829 -4 830 0
-829 4 830 0
5 7 -831 0
-5 -7 -831 0
5 -7 831 0
-5 7 831 0
831 8 -832 0
-831 -8 -832 0
831 -8 832 0
-831 8 832 0
9 10 -833 0
-9 -10 -833 0
9 -10 833 0
-9 10 833 0
833 11 -834 0
-833 -11 -834 0
833 -11 834 0
-833 11 834 0
13 16 -835 0
-13 -16 -835 0
13 -16 835 0
-13 16 835 0
18 19 -836 0
-18 -19 -836 0
18 -19 836 0
-18 19 836 0
22 23 -837 0
-22 -23 -837 0
22 -23 837 0
-22 23 837 0
830 832 -838 0
-830 -832 -838 0
830 -832 838 0
-830 832 838 0
838 834 -839 0
-838 -834 -839 0
838 -834 839 0
-838 834 839 0
830 835 -840 0
-830 -835 -840 0
830 -835 840 0
-830 835 840 0
840 836 -841 0
-840 -836 -841 0
840 -836 841 0
-840 836 841 0
832 835 -842 0
-832 -835 -842 0
832 -835 842 0
-832 835 842 0
842 837 -843 0
-842 -837 -843 0
842 -837 843 0
-842 837 843 0
834 836 -844 0
-834 -836 -844 0
834 -836 844 0
-834 836 844 0
844 837 -845 0
-844 -837 -845 0
844 -837 845 0
-844 837 845 0
839 841 843 845 0
1 3 -846 0
-1 -3 -846 0
1 -3 846 0
-1 3 846 0
846 4 -847 0
-846 -4 -847 0
846 -4 847 0
-846 4 847 0
5 7 -848 0
-5 -7 -848 0
5 -7 848 0
-5 7 848 0
848 8 -849 0
-848 -8 -849 0
848 -8 849 0
-848 8 849 0
9 10 -850 0
-9 -10 -850 0
9 -10 850 0
-9 10 850 0
850 12 -851 0
-850 -12 -851 0
850 -12 851 0
-850 12 851 0
13 16 -852 0
-13 -16 -852 0
13 -16 852 0
-13 16 852 0
18 19 -853 0
-18 -19 -853 0
18 -19 853 0
-18 19 853 0
853 20 -854 0
-853 -20 -854 0
853 -20 854 0
-853 20 854 0
22 23 -855 0
-22 -23 -855 0
22 -23 855 0
-22 23 855 0
855 24 -856 0
-855 -24 -856 0
855 -24 856 0
-855 24 856 0
847 849 -857 0
-847 -849 -857 0
847 -849 857 0
-847 849 857 0
857 851 -858 0
-857 -851 -858 0
857 -851 858 0
-857 851 858 0
847 852 -859 0
-847 -852 -859 0
847 -852 859 0
-847 852 859 0
859 854 -860 0
-859 -854 -860 0
859 -854 860 0
-859 854 860 0
849 852 -861 0
-849 -852 -861 0
849 -852 861 0
-849 852 861 0
861 856 -862 0
-861 -856 -862 0
861 -856 862 0
-861 856 862 0
851 854 -863 0
-851 -854 -863 0
851 -854 863 0
-851 854 863 0
863 856 -864 0
-863 -856 -864 0
863 -856 864 0
-863 856 864 0
858 860 862 864 0
1 3 -865 0
-1 -3 -865 0
1 -3 865 0
-1 3 865 0
865 4 -866 0
-865 -4 -866 0
865 -4 866 0
-865 4 866 0
6 7 -867 0
-6 -7 -867 0
6 -7 867 0
-6 7 867 0
9 12 -868 0
-9 -12 -868 0
9 -12 868 0
-9 12 868 0
13 14 -869 0
-13 -14 -869 0
13 -14 869 0
-13 14 869 0
869 15 -870 0
-869 -15 -870 0
869 -15 870 0
-869 15 870 0
17 19 -871 0
-17 -19 -871 0
17 -19 871 0
-17 19 871 0
871 20 -872 0
-871 -20 -872 0
871 -20 872 0
-871 20 872 0
22 23 -873 0
-22 -23 -873 0
22 -23 873 0
-22 23 873 0
866 867 -874 0
-866 -867 -874 0
866 -867 874 0
-866 867 874 0
874 868 -875 0
-874 -868 -875 0
874 -868 875 0
-874 868 875 0
866 870 -876 0
-866 -870 -876 0
866 -870 876 0
-866 870 876 0
876 872 -877 0
-876 -872 -877 0
876 -872 877 0
-876 872 877 0
867 870 -878 0
-867 -870 -878 0
867 -870 878 0
-867 870 878 0
878 873 -879 0
-878 -873 -879 0
878 -873 879 0
-878 873 879 0
868 872 -880 0
-868 -872 -880 0
868 -872 880 0
-868 872 880 0
880 873 -881 0
-880 -873 -881 0
880 -873 881 0
-880 873 881 0
875 877 879 881 0
1 3 -882 0
-1 -3 -882 0
1 -3 882 0
-1 3 882 0
882 4 -883 0
-882 -4 -883 0
882 -4 883 0
-882 4 883 0
6 7 -884 0
-6 -7 -884 0
6 -7 884 0
-6 7 884 0
9 11 -885 0
-9 -11 -885 0
9 -11 885 0
-9 11 885 0
885 12 -886 0
-885 -12 -886 0
885 -12 886 0
-885 12 886 0
13 14 -887 0
-13 -14 -887 0
13 -14 887 0
-13 14 887 0
887 15 -888 0
-887 -15 -888 0
887 -15 888 0
-887 15 888 0
17 20 -889 0
-17 -20 -889 0
17 -20 889 0
-17 20 889 0
22 23 -890 0
-22 -23 -890 0
22 -23 890 0
-22 23 890 0
890 24 -891 0
-890 -24 -891 0
890 -24 891 0
-890 24 891 0
883 884 -892 0
-883 -884 -892 0
883 -884 892 0
-883 884 892 0
892 886 -893 0
-892 -886 -893 0
892 -886 893 0
-892 886 893 0
883 888 -894 0
-883 -888 -894 0
883 -888 894 0
-883 888 894 0
894 889 -895 0
-894 -889 -895 0
894 -889 895 0
-894 889 895 0
884 888 -896 0
-884 -888 -896 0
884 -888 896 0
-884 888 896 0
896 891 -897 0
-896 -891 -897 0
896 -891 897 0
-896 891 897 0
886 889 -898 0
-886 -889 -898 0
886 -889 898 0
-886 889 898 0
898 891 -899 0
-898 -891 -899 0
898 -891 899 0
-898 891 899 0
893 895 897 899 0
1 3 -900 0
-1 -3 -900 0
1 -3 900 0
-1 3 900 0
900 4 -901 0
-900 -4 -901 0
900 -4 901 0
-900 4 901 0
6 7 -902 0
-6 -7 -902 0
6 -7 902 0
-6 7 902 0
10 11 -903 0
-10 -11 -903 0
10 -11 903 0
-10 11 903 0
13 14 -904 0
-13 -14 -904 0
13 -14 904 0
-13 14 904 0
904 15 -905 0
-904 -15 -905 0
904 -15 905 0
-904 15 905 0
17 18 -906 0
-17 -18 -906 0
17 -18 906 0
-17 18 906 0
906 19 -907 0
-906 -19 -907 0
906 -19 907 0
-906 19 907 0
21 24 -908 0
-21 -24 -908 0
21 -24 908 0
-21 24 908 0
901 902 -909 0
-901 -902 -909 0
901 -902 909 0
-901 902 909 0
909 903 -910 0
-909 -903 -910 0
909 -903 910 0
-909 903 910 0
901 905 -911 0
-901 -905 -911 0
901 -905 911 0
-901 905 911 0
911 907 -912 0
-911 -907 -912 0
911 -907 912 0
-911 907 912 0
902 905 -913 0
-902 -905 -913 0
902 -905 913 0
-902 905 913 0
913 908 -914 0
-913 -908 -914 0
913 -908 914 0
-913 908 914 0
903 907 -915 0
-903 -907 -915 0
903 -907 915 0
-903 907 915 0
915 908 -916 0
-915 -908 -916 0
915 -908 916 0
-915 908 916 0
910 912 914 916 0
1 3 -917 0
-1 -3 -917 0
1 -3 917 0
-1 3 917 0
917 4 -918 0
-917 -4 -918 0
917 -4 918 0
-917 4 918 0
6 7 -919 0
-6 -7 -919 0
6 -7 919 0
-6 7 919 0
10 11 -920 0
-10 -11 -920 0
10 -11 920 0
-10 11 920 0
920 12 -921 0
-920 -12 -921 0
920 -12 921 0
-920 12 921 0
13 14 -922 0
-13 -14 -922 0
13 -14 922 0
-13 14 922 0
922 15 -923 0
-922 -15 -923 0
922 -15 923 0
-922 15 923 0
17 18 -924 0
-17 -18 -924 0
17 -18 924 0
-17 18 924 0
924 20 -925 0
-924 -20 -925 0
924 -20 925 0
-924 20 925 0
21 23 -926 0
-21 -23 -926 0
21 -23 926 0
-21 23 926 0
926 24 -927 0
-926 -24 -927 0
926 -24 927 0
-926 24 927 0
918 919 -928 0
-918 -919 -928 0
918 -919 928 0
-918 919 928 0
928 921 -929 0
-928 -921 -929 0
928 -921 929 0
-928 921 929 0
918 923 -930 0
-918 -923 -930 0
918 -923 930 0
-918 923 930 0
930 925 -931 0
-930 -925 -931 0
930 -925 931 0
-930 925 931 0
919 923 -932 0
-919 -923 -932 0
919 -923 932 0
-919 923 932 0
932 927 -933 0
-932 -927 -933 0
932 -927 933 0
-932 927 933 0
921 925 -934 0
-921 -925 -934 0
921 -925 934 0
-921 925 934 0
934 927 -935 0
-934 -927 -935 0
934 -927 935 0
-934 927 935 0
929 931 933 935 0
1 3 -936 0
-1 -3 -936 0
1 -3 936 0
-1 3 936 0
936 4 -937 0
-936 -4 -937 0
936 -4 937 0
-936 4 937 0
6 7 -938 0
-6 -7 -938 0
6 -7 938 0
-6 7 938 0
9 10 -939 0
-9 -10 -939 0
9 -10 939 0
-9 10 939 0
939 11 -940 0
-939 -11 -940 0
939 -11 940 0
-939 11 940 0
13 14 -941 0
-13 -14 -941 0
13 -14 941 0
-13 14 941 0
941 15 -942 0
-941 -15 -942 0
941 -15 942 0
-941 15 942 0
18 19 -943 0
-18 -19 -943 0
18 -19 943 0
-18 19 943 0
21 22 -944 0
-21 -22 -944 0
21 -22 944 0
-21 22 944 0
944 24 -945 0
-944 -24 -945 0
944 -24 945 0
-944 24 945 0
937 938 -946 0
-937 -938 -946 0
937 -938 946 0
-937 938 946 0
946 940 -947 0
-946 -940 -947 0
946 -940 947 0
-946 940 947 0
937 942 -948 0
-937 -942 -948 0
937 -942 948 0
-937 942 948 0
948 943 -949 0
-948 -943 -949 0
948 -943 949 0
-948 943 949 0
938 942 -950 0
-938 -942 -950 0
938 -942 950 0
-938 942 950 0
950 945 -951 0
-950 -945 -951 0
950 -945 951 0
-950 945 951 0
940 943 -952 0
-940 -943 -952 0
940 -943 952 0
-940 943 952 0
952 945 -953 0
-952 -945 -953 0
952 -945 953 0
-952 945 953 0
947 949 951 953 0
1 3 -954 0
-1 -3 -954 0
1 -3 954 0
-1 3 954 0
954 4 -955 0
-954 -4 -955 0
954 -4 955 0
-954 4 955 0
6 7 -956 0
-6 -7 -956 0
6 -7 956 0
-6 7 956 0
9 10 -957 0
-9 -10 -957 0
9 -10 957 0
-9 10 957 0
957 12 -958 0
-957 -12 -958 0
957 -12 958 0
-957 12 958 0
13 14 -959 0
-13 -14 -959 0
13 -14 959 0
-13 14 959 0
959 15 -960 0
-959 -15 -960 0
959 -15 960 0
-959 15 960 0
18 19 -961 0
-18 -19 -961 0
18 -19 961 0
-18 19 961 0
961 20 -962 0
-961 -20 -962 0
961 -20 962 0
-961 20 962 0
21 22 -963 0
-21 -22 -963 0
21 -22 963 0
-21 22 963 0
963 23 -964 0
-963 -23 -964 0
963 -23 964 0
-963 23 964 0
955 956 -965 0
-955 -956 -965 0
955 -956 965 0
-955 956 965 0
965 958 -966 0
-965 -958 -966 0
965 -958 966 0
-965 958 966 0
955 960 -967 0
-955 -960 -967 0
955 -960 967 0
-955 960 967 0
967 962 -968 0
-967 -962 -968 0
967 -962 968 0
-967 962 968 0
956 960 -969 0
-956 -960 -969 0
956 -960 969 0
-956 960 969 0
969 964 -970 0
-969 -964 -970 0
969 -964 970 0
-969 964 970 0
958 962 -971 0
-958 -962 -971 0
958 -962 971 0
-958 962 971 0
971 964 -972 0
-971 -964 -972 0
971 -964 972 0
-971 964 972 0
966 968 970 972 0
1 3 -973 0
-1 -3 -973 0
1 -3 973 0
-1 3 973 0
973 4 -974 0
-973 -4 -974 0
973 -4 974 0
-973 4 974 0
6 7 -975 0
-6 -7 -975 0
6 -7 975 0
-6 7 975 0
975 8 -976 0
-975 -8 -976 0
975 -8 976 0
-975 8 976 0
9 12 -977 0
-9 -12 -977 0
9 -12 977 0
-9 12 977 0
13 14 -978 0
-13 -14 -978 0
13 -14 978 0
-13 14 978 0
978 16 -979 0
-978 -16 -979 0
978 -16 979 0
-978 16 979 0
17 19 -980 0
-17 -19 -980 0
17 -19 980 0
-17 19 980 0
980 20 -981 0
-980 -20 -981 0
980 -20 981 0
-980 20 981 0
21 22 -982 0
-21 -22 -982 0
21 -22 982 0
-21 22 982 0
982 23 -983 0
-982 -23 -983 0
982 -23 983 0
-982 23 983 0
974 976 -984 0
-974 -976 -984 0
974 -976 984 0
-974 976 984 0
984 977 -985 0
-984 -977 -985 0
984 -977 985 0
-984 977 985 0
974 979 -986 0
-974 -979 -986 0
974 -979 986 0
-974 979 986 0
986 981 -987 0
-986 -981 -987 0
986 -981 987 0
-986 981 987 0
976 979 -988 0
-976 -979 -988 0
976 -979 988 0
-976 979 988 0
988 983 -989 0
-988 -983 -989 0
988 -983 989 0
-988 983 989 0
977 981 -990 0
-977 -981 -990 0
977 -981 990 0
-977 981 990 0
990 983 -991 0
-990 -983 -991 0
990 -983 991 0
-990 983 991 0
985 987 989 991 0
1 3 -992 0
-1 -3 -992 0
1 -3 992 0
-1 3 992 0
992 4 -993 0
-992 -4 -993 0
992 -4 993 0
-992 4 993 0
6 7 -994 0
-6 -7 -994 0
6 -7 994 0
-6 7 994 0
994 8 -995 0
-994 -8 -995 0
994 -8 995 0
-994 8 995 0
9 11 -996 0
-9 -11 -996 0
9 -11 996 0
-9 11 996 0
996 12 -997 0
-996 -12 -997 0
996 -12 997 0
-996 12 997 0
13 14 -998 0
-13 -14 -998 0
13 -14 998 0
-13 14 998 0
998 16 -999 0
-998 -16 -999 0
998 -16 999 0
-998 16 999 0
17 20 -1000 0
-17 -20 -1000 0
17 -20 1000 0
-17 20 1000 0
21 22 -1001 0
-21 -22 -1001 0
21 -22 1001 0
-21 22 1001 0
1001 24 -1002 0
-1001 -24 -1002 0
1001 -24 1002 0
-1001 24 1002 0
993 995 -1003 0
-993 -995 -1003 0
993 -995 1003 0
-993 995 1003 0
1003 997 -1004 0
-1003 -997 -1004 0
1003 -997 1004 0
-1003 997 1004 0
993 999 -1005 0
-993 -999 -1005 0
993 -999 1005 0
-993 999 1005 0
1005 1000 -1006 0
-1005 -1000 -1006 0
1005 -1000 1006 0
-1005 1000 1006 0
995 999 -1007 0
-995 -999 -1007 0
995 -999 1007 0
-995 999 1007 0
1007 1002 -1008 0
-1007 -1002 -1008 0
1007 -1002 1008 0
-1007 1002 1008 0
997 1000 -1009 0
-997 -1000 -1009 0
997 -1000 1009 0
-997 1000 1009 0
1009 1002 -1010 0
-1009 -1002 -1010 0
1009 -1002 1010 0
-1009 1002 1010 0
1004 1006 1008 1010 0
1 3 -1011 0
-1 -3 -1011 0
1 -3 1011 0
-1 3 1011 0
1011 4 -1012 0
-1011 -4 -1012 0
1011 -4 1012 0
-1011 4 1012 0
6 7 -1013 0
-6 -7 -1013 0
6 -7 1013 0
-6 7 1013 0
1013 8 -1014 0
-1013 -8 -1014 0
1013 -8 1014 0
-1013 8 1014 0
10 11 -1015 0
-10 -11 -1015 0
10 -11 1015 0
-10 11 1015 0
13 14 -1016 0
-13 -14 -1016 0
13 -14 1016 0
-13 14 1016 0
1016 16 -1017 0
-1016 -16 -1017 0
1016 -16 1017 0
-1016 16 1017 0
17 18 -1018 0
-17 -18 -1018 0
17 -18 1018 0
-17 18 1018 0
1018 19 -1019 0
-1018 -19 -1019 0
1018 -19 1019 0
-1018 19 1019 0
21 23 -1020 0
-21 -23 -1020 0
21 -23 1020 0
-21 23 1020 0
1020 24 -1021 0
-1020 -24 -1021 0
1020 -24 1021 0
-1020 24 1021 0
1012 1014 -1022 0
-1012 -1014 -1022 0
1012 -1014 1022 0
-1012 1014 1022 0
1022 1015 -1023 0
-1022 -1015 -1023 0
1022 -1015 1023 0
-1022 1015 1023 0
1012 1017 -1024 0
-1012 -1017 -1024 0
1012 -1017 1024 0
-1012 1017 1024 0
1024 1019 -1025 0
-1024 -1019 -1025 0
1024 -1019 1025 0
-1024 1019 1025 0
1014 1017 -1026 0
-1014 -1017 -1026 0
1014 -1017 1026 0
-1014 1017 1026 0
1026 1021 -1027 0
-1026 -1021 -1027 0
1026 -1021 1027 0
-1026 1021 1027 0
1015 1019 -1028 0
-1015 -1019 -1028 0
1015 -1019 1028 0
-1015 1019 1028 0
1028 1021 -1029 0
-1028 -1021 -1029 0
1028 -1021 1029 0
-1028 1021 1029 0
1023 1025 1027 1029 0
1 3 -1030 0
-1 -3 -1030 0
1 -3 1030 0
-1 3 1030 0
1030 4 -1031 0
-1030 -4 -1031 0
1030 -4 1031 0
-1030 4 1031 0
6 7 -1032 0
-6 -7 -1032 0
6 -7 1032 0
-6 7 1032 0
1032 8 -1033 0
-1032 -8 -1033 0
1032 -8 1033 0
-1032 8 1033 0
10 11 -1034 0
-10 -11 -1034 0
10 -11 1034 0
-10 11 1034 0
1034 12 -1035 0
-1034 -12 -1035 0
1034 -12 1035 0
-1034 12 1035 0
13 14 -1036 0
-13 -14 -1036 0
13 -14 1036 0
-13 14 1036 0
1036 16 -1037 0
-1036 -16 -1037 0
1036 -16 1037 0
-1036 16 1037 0
17 18 -1038 0
-17 -18 -1038 0
17 -18 1038 0
-17 18 1038 0
1038 20 -1039 0
-1038 -20 -1039 0
1038 -20 1039 0
-1038 20 1039 0
21 24 -1040 0
-21 -24 -1040 0
21 -24 1040 0
-21 24 1040 0
1031 1033 -1041 0
-1031 -1033 -1041 0
1031 -1033 1041 0
-1031 1033 1041 0
1041 1035 -1042 0
-1041 -1035 -1042 0
1041 -1035 1042 0
-1041 1035 1042 0
1031 1037 -1043 0
-1031 -1037 -1043 0
1031 -1037 1043 0
-1031 1037 1043 0
1043 1039 -1044 0
-1043 -1039 -1044 0
1043 -1039 1044 0
-1043 1039 1044 0
1033 1037 -1045 0
-1033 -1037 -1045 0
1033 -1037 1045 0
-1033 1037 1045 0
1045 1040 -1046 0
-1045 -1040 -1046 0
1045 -1040 1046 0
-1045 1040 1046 0
1035 1039 -1047 0
-1035 -1039 -1047 0
1035 -1039 1047 0
-1035 1039 1047 0
1047 1040 -1048 0
-1047 -1040 -1048 0
1047 -1040 1048 0
-1047 1040 1048 0
1042 1044 1046 1048 0
1 3 -1049 0
-1 -3 -1049 0
1 -3 1049 0
-1 3 1049 0
1049 4 -1050 0
-1049 -4 -1050 0
1049 -4 1050 0
-1049 4 1050 0
6 7 -1051 0
-6 -7 -1051 0
6 -7 1051 0
-6 7 1051 0
1051 8 -1052 0
-1051 -8 -1052 0
1051 -8 1052 0
-1051 8 1052 0
9 10 -1053 0
-9 -10 -1053 0
9 -10 1053 0
-9 10 1053 0
1053 11 -1054 0
-1053 -11 -1054 0
1053 -11 1054 0
-1053 11 1054 0
13 14 -1055 0
-13 -14 -1055 0
13 -14 1055 0
-13 14 1055 0
1055 16 -1056 0
-1055 -16 -1056 0
1055 -16 1056 0
-1055 16 1056 0
18 19 -1057 0
-18 -19 -1057 0
18 -19 1057 0
-18 19 1057 0
22 23 -1058 0
-22 -23 -1058 0
22 -23 1058 0
-22 23 1058 0
1058 24 -1059 0
-1058 -24 -1059 0
1058 -24 1059 0
-1058 24 1059 0
1050 1052 -1060 0
-1050 -1052 -1060 0
1050 -1052 1060 0
-1050 1052 1060 0
1060 1054 -1061 0
-1060 -1054 -1061 0
1060 -1054 1061 0
-1060 1054 1061 0
1050 1056 -1062 0
-1050 -1056 -1062 0
1050 -1056 1062 0
-1050 1056 1062 0
1062 1057 -1063 0
-1062 -1057 -1063 0
1062 -1057 1063 0
-1062 1057 1063 0
1052 1056 -1064 0
-1052 -1056 -1064 0
1052 -1056 1064 0
-1052 1056 1064 0
1064 1059 -1065 0
-1064 -1059 -1065 0
1064 -1059 1065 0
-1064 1059 1065 0
1054 1057 -1066 0
-1054 -1057 -1066 0
1054 -1057 1066 0
-1054 1057 1066 0
1066 1059 -1067 0
-1066 -1059 -1067 0
1066 -1059 1067 0
-1066 1059 1067 0
1061 1063 1065 1067 0
1 3 -1068 0
-1 -3 -1068 0
1 -3 1068 0
-1 3 1068 0
1068 4 -1069 0
-1068 -4 -1069 0
1068 -4 1069 0
-1068 4 1069 0
6 7 -1070 0
-6 -7 -1070 0
6 -7 1070 0
-6 7 1070 0
1070 8 -1071 0
-1070 -8 -1071 0
1070 -8 1071 0
-1070 8 1071 0
9 10 -1072 0
-9 -10 -1072 0
9 -10 1072 0
-9 10 1072 0
1072 12 -1073 0
-1072 -12 -1073 0
1072 -12 1073 0
-1072 12 1073 0
13 14 -1074 0
-13 -14 -1074 0
13 -14 1074 0
-13 14 1074 0
1074 16 -1075 0
-1074 -16 -1075 0
1074 -16 1075 0
-1074 16 1075 0
18 19 -1076 0
-18 -19 -1076 0
18 -19 1076 0
-18 19 1076 0
1076 20 -1077 0
-1076 -20 -1077 0
1076 -20 1077 0
-1076 20 1077 0
22 23 -1078 0
-22 -23 -1078 0
22 -23 1078 0
-22 23 1078 0
1069 1071 -1079 0
-1069 -1071 -1079 0
1069 -1071 1079 0
-1069 1071 1079 0
1079 1073 -1080 0
-1079 -1073 -1080 0
1079 -1073 1080 0
-1079 1073 1080 0
1069 1075 -1081 0
-1069 -1075 -1081 0
1069 -1075 1081 0
-1069 1075 1081 0
1081 1077 -1082 0
-1081 -1077 -1082 0
1081 -1077 1082 0
-1081 1077 1082 0
1071 1075 -1083 0
-1071 -1075 -1083 0
1071 -1075 1083 0
-1071 1075 1083 0
1083 1078 -1084 0
-1083 -1078 -1084 0
1083 -1078 1084 0
-1083 1078 1084 0
1073 1077 -1085 0
-1073 -1077 -1085 0
1073 -1077 1085 0
-1073 1077 1085 0
1085 1078 -1086 0
-1085 -1078 -1086 0
1085 -1078 1086 0
-1085 1078 1086 0
1080 1082 1084 1086 0
1 3 -1087 0
-1 -3 -1087 0
1 -3 1087 0
-1 3 1087 0
1087 4 -1088 0
-1087 -4 -1088 0
1087 -4 1088 0
-1087 4 1088 0
5 6 -1089 0
-5 -6 -1089 0
5 -6 1089 0
-5 6 1089 0
1089 7 -1090 0
-1089 -7 -1090 0
1089 -7 1090 0
-1089 7 1090 0
9 12 -1091 0
-9 -12 -1091 0
9 -12 1091 0
-9 12 1091 0
14 15 -1092 0
-14 -15 -1092 0
14 -15 1092 0
-14 15 1092 0
17 19 -1093 0
-17 -19 -1093 0
17 -19 1093 0
-17 19 1093 0
1093 20 -1094 0
-1093 -20 -1094 0
1093 -20 1094 0
-1093 20 1094 0
22 23 -1095 0
-22 -23 -1095 0
22 -23 1095 0
-22 23 1095 0
1095 24 -1096 0
-1095 -24 -1096 0
1095 -24 1096 0
-1095 24 1096 0
1088 1090 -1097 0
-1088 -1090 -1097 0
1088 -1090 1097 0
-1088 1090 1097 0
1097 1091 -1098 0
-1097 -1091 -1098 0
1097 -1091 1098 0
-1097 1091 1098 0
1088 1092 -1099 0
-1088 -1092 -1099 0
1088 -1092 1099 0
-1088 1092 1099 0
1099 1094 -1100 0
-1099 -1094 -1100 0
1099 -1094 1100 0
-1099 1094 1100 0
1090 1092 -1101 0
-1090 -1092 -1101 0
1090 -1092 1101 0
-1090 1092 1101 0
1101 1096 -1102 0
-1101 -1096 -1102 0
1101 -1096 1102 0
-1101 1096 1102 0
1091 1094 -1103 0
-1091 -1094 -1103 0
1091 -1094 1103 0
-1091 1094 1103 0
1103 1096 -1104 0
-1103 -1096 -1104 0
1103 -1096 1104 0
-1103 1096 1104 0
1098 1100 1102 1104 0
1 3 -1105 0
-1 -3 -1105 0
1 -3 1105 0
-1 3 1105 0
1105 4 -1106 0
-1105 -4 -1106 0
1105 -4 1106 0
-1105 4 1106 0
5 6 -1107 0
-5 -6 -1107 0
5 -6 1107 0
-5 6 1107 0
1107 7 -1108 0
-1107 -7 -1108 0
1107 -7 1108 0
-1107 7 1108 0
9 11 -1109 0
-9 -11 -1109 0
9 -11 1109 0
-9 11 1109 0
1109 12 -1110 0
-1109 -12 -1110 0
1109 -12 1110 0
-1109 12 1110 0
14 15 -1111 0
-14 -15 -1111 0
14 -15 1111 0
-14 15 1111 0
17 20 -1112 0
-17 -20 -1112 0
17 -20 1112 0
-17 20 1112 0
22 23 -1113 0
-22 -23 -1113 0
22 -23 1113 0
-22 23 1113 0
1106 1108 -1114 0
-1106 -1108 -1114 0
1106 -1108 1114 0
-1106 1108 1114 0
1114 1110 -1115 0
-1114 -1110 -1115 0
1114 -1110 1115 0
-1114 1110 1115 0
1106 1111 -1116 0
-1106 -1111 -1116 0
1106 -1111 1116 0
-1106 1111 1116 0
1116 1112 -1117 0
-1116 -1112 -1117 0
1116 -1112 1117 0
-1116 1112 1117 0
1108 1111 -1118 0
-1108 -1111 -1118 0
1108 -1111 1118 0
-1108 1111 1118 0
1118 1113 -1119 0
-1118 -1113 -1119 0
1118 -1113 1119 0
-1118 1113 1119 0
1110 1112 -1120 0
-1110 -1112 -1120 0
1110 -1112 1120 0
-1110 1112 1120 0
1120 1113 -1121 0
-1120 -1113 -1121 0
1120 -1113 1121 0
-1120 1113 1121 0
1115 1117 1119 1121 0
1 3 -1122 0
-1 -3 -1122 0
1 -3 1122 0
-1 3 1122 0
1122 4 -1123 0
-1122 -4 -1123 0
1122 -4 1123 0
-1122 4 1123 0
5 6 -1124 0
-5 -6 -1124 0
5 -6 1124 0
-5 6 1124 0
1124 7 -1125 0
-1124 -7 -1125 0
1124 -7 1125 0
-1124 7 1125 0
10 11 -1126 0
-10 -11 -1126 0
10 -11 1126 0
-10 11 1126 0
14 15 -1127 0
-14 -15 -1127 0
14 -15 1127 0
-14 15 1127 0
17 18 -1128 0
-17 -18 -1128 0
17 -18 1128 0
-17 18 1128 0
1128 19 -1129 0
-1128 -19 -1129 0
1128 -19 1129 0
-1128 19 1129 0
21 22 -1130 0
-21 -22 -1130 0
21 -22 1130 0
-21 22 1130 0
1130 24 -1131 0
-1130 -24 -1131 0
1130 -24 1131 0
-1130 24 1131 0
1123 1125 -1132 0
-1123 -1125 -1132 0
1123 -1125 1132 0
-1123 1125 1132 0
1132 1126 -1133 0
-1132 -1126 -1133 0
1132 -1126 1133 0
-1132 1126 1133 0
1123 1127 -1134 0
-1123 -1127 -1134 0
1123 -1127 1134 0
-1123 1127 1134 0
1134 1129 -1135 0
-1134 -1129 -1135 0
1134 -1129 1135 0
-1134 1129 1135 0
1125 1127 -1136 0
-1125 -1127 -1136 0
1125 -1127 1136 0
-1125 1127 1136 0
1136 1131 -1137 0
-1136 -1131 -1137 0
1136 -1131 1137 0
-1136 1131 1137 0
1126 1129 -1138 0
-1126 -1129 -1138 0
1126 -1129 1138 0
-1126 1129 1138 0
1138 1131 -1139 0
-1138 -1131 -1139 0
1138 -1131 1139 0
-1138 1131 1139 0
1133 1135 1137 1139 0
1 3 -1140 0
-1 -3 -1140 0
1 -3 1140 0
-1 3 1140 0
1140 4 -1141 0
-1140 -4 -1141 0
1140 -4 1141 0
-1140 4 1141 0
5 6 -1142 0
-5 -6 -1142 0
5 -6 1142 0
-5 6 1142 0
1142 7 -1143 0
-1142 -7 -1143 0
1142 -7 1143 0
-1142 7 1143 0
10 11 -1144 0
-10 -11 -1144 0
10 -11 1144 0
-10 11 1144 0
1144 12 -1145 0
-1144 -12 -1145 0
1144 -12 1145 0
-1144 12 1145 0
14 15 -1146 0
-14 -15 -1146 0
14 -15 1146 0
-14 15 1146 0
17 18 -1147 0
-17 -18 -1147 0
17 -18 1147 0
-17 18 1147 0
1147 20 -1148 0
-1147 -20 -1148 0
1147 -20 1148 0
-1147 20 1148 0
21 22 -1149 0
-21 -22 -1149 0
21 -22 1149 0
-21 22 1149 0
1149 23 -1150 0
-1149 -23 -1150 0
1149 -23 1150 0
-1149 23 1150 0
1141 1143 -1151 0
-1141 -1143 -1151 0
1141 -1143 1151 0
-1141 1143 1151 0
1151 1145 -1152 0
-1151 -1145 -1152 0
1151 -1145 1152 0
-1151 1145 1152 0
1141 1146 -1153 0
-1141 -1146 -1153 0
1141 -1146 1153 0
-1141 1146 1153 0
1153 1148 -1154 0
-1153 -1148 -1154 0
1153 -1148 1154 0
-1153 1148 1154 0
1143 1146 -1155 0
-1143 -1146 -1155 0
1143 -1146 1155 0
-1143 1146 1155 0
1155 1150 -1156 0
-1155 -1150 -1156 0
1155 -1150 1156 0
-1155 1150 1156 0
1145 1148 -1157 0
-1145 -1148 -1157 0
1145 -1148 1157 0
-1145 1148 1157 0
1157 1150 -1158 0
-1157 -1150 -1158 0
1157 -1150 1158 0
-1157 1150 1158 0
1152 1154 1156 1158 0
1 3 -1159 0
-1 -3 -1159 0
1 -3 1159 0
-1 3 1159 0
1159 4 -1160 0
-1159 -4 -1160 0
1159 -4 1160 0
-1159 4 1160 0
5 6 -1161 0
-5 -6 -1161 0
5 -6 1161 0
-5 6 1161 0
1161 7 -1162 0
-1161 -7 -1162 0
1161 -7 1162 0
-1161 7 1162 0
9 10 -1163 0
-9 -10 -1163 0
9 -10 1163 0
-9 10 1163 0
1163 11 -1164 0
-1163 -11 -1164 0
1163 -11 1164 0
-1163 11 1164 0
14 15 -1165 0
-14 -15 -1165 0
14 -15 1165 0
-14 15 1165 0
18 19 -1166 0
-18 -19 -1166 0
18 -19 1166 0
-18 19 1166 0
21 24 -1167 0
-21 -24 -1167 0
21 -24 1167 0
-21 24 1167 0
1160 1162 -1168 0
-1160 -1162 -1168 0
1160 -1162 1168 0
-1160 1162 1168 0
1168 1164 -1169 0
-1168 -1164 -1169 0
1168 -1164 1169 0
-1168 1164 1169 0
1160 1165 -1170 0
-1160 -1165 -1170 0
1160 -1165 1170 0
-1160 1165 1170 0
1170 1166 -1171 0
-1170 -1166 -1171 0
1170 -1166 1171 0
-1170 1166 1171 0
1162 1165 -1172 0
-1162 -1165 -1172 0
1162 -1165 1172 0
-1162 1165 1172 0
1172 1167 -1173 0
-1172 -1167 -1173 0
1172 -1167 1173 0
-1172 1167 1173 0
1164 1166 -1174 0
-1164 -1166 -1174 0
1164 -1166 1174 0
-1164 1166 1174 0
1174 1167 -1175 0
-1174 -1167 -1175 0
1174 -1167 1175 0
-1174 1167 1175 0
1169 1171 1173 1175 0
1 3 -1176 0
-1 -3 -1176 0
1 -3 1176 0
-1 3 1176 0
1176 4 -1177 0
-1176 -4 -1177 0
1176 -4 1177 0
-1176 4 1177 0
5 6 -1178 0
-5 -6 -1178 0
5 -6 1178 0
-5 6 1178 0
1178 7 -1179 0
-1178 -7 -1179 0
1178 -7 1179 0
-1178 7 1179 0
9 10 -1180 0
-9 -10 -1180 0
9 -10 1180 0
-9 10 1180 0
1180 12 -1181 0
-1180 -12 -1181 0
1180 -12 1181 0
-1180 12 1181 0
14 15 -1182 0
-14 -15 -1182 0
14 -15 1182 0
-14 15 1182 0
18 19 -1183 0
-18 -19 -1183 0
18 -19 1183 0
-18 19 1183 0
1183 20 -1184 0
-1183 -20 -1184 0
1183 -20 1184 0
-1183 20 1184 0
21 23 -1185 0
-21 -23 -1185 0
21 -23 1185 0
-21 23 1185 0
1185 24 -1186 0
-1185 -24 -1186 0
1185 -24 1186 0
-1185 24 1186 0
1177 1179 -1187 0
-1177 -1179 -1187 0
1177 -1179 1187 0
-1177 1179 1187 0
1187 1181 -1188 0
-1187 -1181 -1188 0
1187 -1181 1188 0
-1187 1181 1188 0
1177 1182 -1189 0
-1177 -1182 -1189 0
1177 -1182 1189 0
-1177 1182 1189 0
1189 1184 -1190 0
-1189 -1184 -1190 0
1189 -1184 1190 0
-1189 1184 1190 0
1179 1182 -1191 0
-1179 -1182 -1191 0
1179 -1182 1191 0
-1179 1182 1191 0
1191 1186 -1192 0
-1191 -1186 -1192 0
1191 -1186 1192 0
-1191 1186 1192 0
1181 1184 -1193 0
-1181 -1184 -1193 0
1181 -1184 1193 0
-1181 1184 1193 0
1193 1186 -1194 0
-1193 -1186 -1194 0
1193 -1186 1194 0
-1193 1186 1194 0
1188 1190 1192 1194 0
1 3 -1195 0
-1 -3 -1195 0
1 -3 1195 0
-1 3 1195 0
1195 4 -1196 0
-1195 -4 -1196 0
1195 -4 1196 0
-1195 4 1196 0
5 6 -1197 0
-5 -6 -1197 0
5 -6 1197 0
-5 6 1197 0
1197 8 -1198 0
-1197 -8 -1198 0
1197 -8 1198 0
-1197 8 1198 0
9 12 -1199 0
-9 -12 -1199 0
9 -12 1199 0
-9 12 1199 0
14 15 -1200 0
-14 -15 -1200 0
14 -15 1200 0
-14 15 1200 0
1200 16 -1201 0
-1200 -16 -1201 0
1200 -16 1201 0
-1200 16 1201 0
17 19 -1202 0
-17 -19 -1202 0
17 -19 1202 0
-17 19 1202 0
1202 20 -1203 0
-1202 -20 -1203 0
1202 -20 1203 0
-1202 20 1203 0
21 22 -1204 0
-21 -22 -1204 0
21 -22 1204 0
-21 22 1204 0
1204 24 -1205 0
-1204 -24 -1205 0
1204 -24 1205 0
-1204 24 1205 0
1196 1198 -1206 0
-1196 -1198 -1206 0
1196 -1198 1206 0
-1196 1198 1206 0
1206 1199 -1207 0
-1206 -1199 -1207 0
1206 -1199 1207 0
-1206 1199 1207 0
1196 1201 -1208 0
-1196 -1201 -1208 0
1196 -1201 1208 0
-1196 1201 1208 0
1208 1203 -1209 0
-1208 -1203 -1209 0
1208 -1203 1209 0
-1208 1203 1209 0
1198 1201 -1210 0
-1198 -1201 -1210 0
1198 -1201 1210 0
-1198 1201 1210 0
1210 1205 -1211 0
-1210 -1205 -1211 0
1210 -1205 1211 0
-1210 1205 1211 0
1199 1203 -1212 0
-1199 -1203 -1212 0
1199 -1203 1212 0
-1199 1203 1212 0
1212 1205 -1213 0
-1212 -1205 -1213 0
1212 -1205 1213 0
-1212 1205 1213 0
1207 1209 1211 1213 0
1 3 -1214 0
-1 -3 -1214 0
1 -3 1214 0
-1 3 1214 0
1214 4 -1215 0
-1214 -4 -1215 0
1214 -4 1215 0
-1214 4 1215 0
5 6 -1216 0
-5 -6 -1216 0
5 -6 1216 0
-5 6 1216 0
1216 8 -1217 0
-1216 -8 -1217 0
1216 -8 1217 0
-1216 8 1217 0
9 11 -1218 0
-9 -11 -1218 0
9 -11 1218 0
-9 11 1218 0
1218 12 -1219 0
-1218 -12 -1219 0
1218 -12 1219 0
-1218 12 1219 0
14 15 -1220 0
-14 -15 -1220 0
14 -15 1220 0
-14 15 1220 0
1220 16 -1221 0
-1220 -16 -1221 0
1220 -16 1221 0
-1220 16 1221 0
17 20 -1222 0
-17 -20 -1222 0
17 -20 1222 0
-17 20 1222 0
21 22 -1223 0
-21 -22 -1223 0
21 -22 1223 0
-21 22 1223 0
1223 23 -1224 0
-1223 -23 -1224 0
1223 -23 1224 0
-1223 23 1224 0
1215 1217 -1225 0
-1215 -1217 -1225 0
1215 -1217 1225 0
-1215 1217 1225 0
1225 1219 -1226 0
-1225 -1219 -1226 0
1225 -1219 1226 0
-1225 1219 1226 0
1215 1221 -1227 0
-1215 -1221 -1227 0
1215 -1221 1227 0
-1215 1221 1227 0
1227 1222 -1228 0
-1227 -1222 -1228 0
1227 -1222 1228 0
-1227 1222 1228 0
1217 1221 -1229 0
-1217 -1221 -1229 0
1217 -1221 1229 0
-1217 1221 1229 0
1229 1224 -1230 0
-1229 -1224 -1230 0
1229 -1224 1230 0
-1229 1224 1230 0
1219 1222 -1231 0
-1219 -1222 -1231 0
1219 -1222 1231 0
-1219 1222 1231 0
1231 1224 -1232 0
-1231 -1224 -1232 0
1231 -1224 1232 0
-1231 1224 1232 0
1226 1228 1230 1232 0
1 3 -1233 0
-1 -3 -1233 0
1 -3 1233 0
-1 3 1233 0
1233 4 -1234 0
-1233 -4 -1234 0
1233 -4 1234 0
-1233 4 1234 0
5 6 -1235 0
-5 -6 -1235 0
5 -6 1235 0
-5 6 1235 0
1235 8 -1236 0
-1235 -8 -1236 0
1235 -8 1236 0
-1235 8 1236 0
10 11 -1237 0
-10 -11 -1237 0
10 -11 1237 0
-10 11 1237 0
14 15 -1238 0
-14 -15 -1238 0
14 -15 1238 0
-14 15 1238 0
1238 16 -1239 0
-1238 -16 -1239 0
1238 -16 1239 0
-1238 16 1239 0
17 18 -1240 0
-17 -18 -1240 0
17 -18 1240 0
-17 18 1240 0
1240 19 -1241 0
-1240 -19 -1241 0
1240 -19 1241 0
-1240 19 1241 0
22 23 -1242 0
-22 -23 -1242 0
22 -23 1242 0
-22 23 1242 0
1242 24 -1243 0
-1242 -24 -1243 0
1242 -24 1243 0
-1242 24 1243 0
1234 1236 -1244 0
-1234 -1236 -1244 0
1234 -1236 1244 0
-1234 1236 1244 0
1244 1237 -1245 0
-1244 -1237 -1245 0
1244 -1237 1245 0
-1244 1237 1245 0
1234 1239 -1246 0
-1234 -1239 -1246 0
1234 -1239 1246 0
-1234 1239 1246 0
1246 1241 -1247 0
-1246 -1241 -1247 0
1246 -1241 1247 0
-1246 1241 1247 0
1236 1239 -1248 0
-1236 -1239 -1248 0
1236 -1239 1248 0
-1236 1239 1248 0
1248 1243 -1249 0
-1248 -1243 -1249 0
1248 -1243 1249 0
-1248 1243 1249 0
1237 1241 -1250 0
-1237 -1241 -1250 0
1237 -1241 1250 0
-1237 1241 1250 0
1250 1243 -1251 0
-1250 -1243 -1251 0
1250 -1243 1251 0
-1250 1243 1251 0
1245 1247 1249 1251 0
1 3 -1252 0
-1 -3 -1252 0
1 -3 1252 0
-1 3 1252 0
1252 4 -1253 0
-1252 -4 -1253 0
1252 -4 1253 0
-1252 4 1253 0
5 6 -1254 0
-5 -6 -1254 0
5 -6 1254 0
-5 6 1254 0
1254 8 -1255 0
-1254 -8 -1255 0
1254 -8 1255 0
-1254 8 1255 0
10 11 -1256 0
-10 -11 -1256 0
10 -11 1256 0
-10 11 1256 0
1256 12 -1257 0
-1256 -12 -1257 0
1256 -12 1257 0
-1256 12 1257 0
14 15 -1258 0
-14 -15 -1258 0
14 -15 1258 0
-14 15 1258 0
1258 16 -1259 0
-1258 -16 -1259 0
1258 -16 1259 0
-1258 16 1259 0
17 18 -1260 0
-17 -18 -1260 0
17 -18 1260 0
-17 18 1260 0
1260 20 -1261 0
-1260 -20 -1261 0
1260 -20 1261 0
-1260 20 1261 0
22 23 -1262 0
-22 -23 -1262 0
22 -23 1262 0
-22 23 1262 0
1253 1255 -1263 0
-1253 -1255 -1263 0
1253 -1255 1263 0
-1253 1255 1263 0
1263 1257 -1264 0
-1263 -1257 -1264 0
1263 -1257 1264 0
-1263 1257 1264 0
1253 1259 -1265 0
-1253 -1259 -1265 0
1253 -1259 1265 0
-1253 1259 1265 0
1265 1261 -1266 0
-1265 -1261 -1266 0
1265 -1261 1266 0
-1265 1261 1266 0
1255 1259 -1267 0
-1255 -1259 -1267 0
1255 -1259 1267 0
-1255 1259 1267 0
1267 1262 -1268 0
-1267 -1262 -1268 0
1267 -1262 1268 0
-1267 1262 1268 0
1257 1261 -1269 0
-1257 -1261 -1269 0
1257 -1261 1269 0
-1257 1261 1269 0
1269 1262 -1270 0
-1269 -1262 -1270 0
1269 -1262 1270 0
-1269 1262 1270 0
1264 1266 1268 1270 0
1 3 -1271 0
-1 -3 -1271 0
1 -3 1271 0
-1 3 1271 0
1271 4 -1272 0
-1271 -4 -1272 0
1271 -4 1272 0
-1271 4 1272 0
5 6 -1273 0
-5 -6 -1273 0
5 -6 1273 0
-5 6 1273 0
1273 8 -1274 0
-1273 -8 -1274 0
1273 -8 1274 0
-1273 8 1274 0
9 10 -1275 0
-9 -10 -1275 0
9 -10 1275 0
-9 10 1275 0
1275 11 -1276 0
-1275 -11 -1276 0
1275 -11 1276 0
-1275 11 1276 0
14 15 -1277 0
-14 -15 -1277 0
14 -15 1277 0
-14 15 1277 0
1277 16 -1278 0
-1277 -16 -1278 0
1277 -16 1278 0
-1277 16 1278 0
18 19 -1279 0
-18 -19 -1279 0
18 -19 1279 0
-18 19 1279 0
21 23 -1280 0
-21 -23 -1280 0
21 -23 1280 0
-21 23 1280 0
1280 24 -1281 0
-1280 -24 -1281 0
1280 -24 1281 0
-1280 24 1281 0
1272 1274 -1282 0
-1272 -1274 -1282 0
1272 -1274 1282 0
-1272 1274 1282 0
1282 1276 -1283 0
-1282 -1276 -1283 0
1282 -1276 1283 0
-1282 1276 1283 0
1272 1278 -1284 0
-1272 -1278 -1284 0
1272 -1278 1284 0
-1272 1278 1284 0
1284 1279 -1285 0
-1284 -1279 -1285 0
1284 -1279 1285 0
-1284 1279 1285 0
1274 1278 -1286 0
-1274 -1278 -1286 0
1274 -1278 1286 0
-1274 1278 1286 0
1286 1281 -1287 0
-1286 -1281 -1287 0
1286 -1281 1287 0
-1286 1281 1287 0
1276 1279 -1288 0
-1276 -1279 -1288 0
1276 -1279 1288 0
-1276 1279 1288 0
1288 1281 -1289 0
-1288 -1281 -1289 0
1288 -1281 1289 0
-1288 1281 1289 0
1283 1285 1287 1289 0
1 3 -1290 0
-1 -3 -1290 0
1 -3 1290 0
-1 3 1290 0
1290 4 -1291 0
-1290 -4 -1291 0
1290 -4 1291 0
-1290 4 1291 0
5 6 -1292 0
-5 -6 -1292 0
5 -6 1292 0
-5 6 1292 0
1292 8 -1293 0
-1292 -8 -1293 0
1292 -8 1293 0
-1292 8 1293 0
9 10 -1294 0
-9 -10 -1294 0
9 -10 1294 0
-9 10 1294 0
1294 12 -1295 0
-1294 -12 -1295 0
1294 -12 1295 0
-1294 12 1295 0
14 15 -1296 0
-14 -15 -1296 0
14 -15 1296 0
-14 15 1296 0
1296 16 -1297 0
-1296 -16 -1297 0
1296 -16 1297 0
-1296 16 1297 0
18 19 -1298 0
-18 -19 -1298 0
18 -19 1298 0
-18 19 1298 0
1298 20 -1299 0
-1298 -20 -1299 0
1298 -20 1299 0
-1298 20 1299 0
21 24 -1300 0
-21 -24 -1300 0
21 -24 1300 0
-21 24 1300 0
1291 1293 -1301 0
-1291 -1293 -1301 0
1291 -1293 1301 0
-1291 1293 1301 0
1301 1295 -1302 0
-1301 -1295 -1302 0
1301 -1295 1302 0
-1301 1295 1302 0
1291 1297 -1303 0
-1291 -1297 -1303 0
1291 -1297 1303 0
-1291 1297 1303 0
1303 1299 -1304 0
-1303 -1299 -1304 0
1303 -1299 1304 0
-1303 1299 1304 0
1293 1297 -1305 0
-1293 -1297 -1305 0
1293 -1297 1305 0
-1293 1297 1305 0
1305 1300 -1306 0
-1305 -1300 -1306 0
1305 -1300 1306 0
-1305 1300 1306 0
1295 1299 -1307 0
-1295 -1299 -1307 0
1295 -1299 1307 0
-1295 1299 1307 0
1307 1300 -1308 0
-1307 -1300 -1308 0
1307 -1300 1308 0
-1307 1300 1308 0
1302 1304 1306 1308 0
2 3 -1309 0
-2 -3 -1309 0
2 -3 1309 0
-2 3 1309 0
5 8 -1310 0
-5 -8 -1310 0
5 -8 1310 0
-5 8 1310 0
9 12 -1311 0
-9 -12 -1311 0
9 -12 1311 0
-9 12 1311 0
14 15 -1312 0
-14 -15 -1312 0
14 -15 1312 0
-14 15 1312 0
18 19 -1313 0
-18 -19 -1313 0
18 -19 1313 0
-18 19 1313 0
21 24 -1314 0
-21 -24 -1314 0
21 -24 1314 0
-21 24 1314 0
1309 1310 -1315 0
-1309 -1310 -1315 0
1309 -1310 1315 0
-1309 1310 1315 0
1315 1311 -1316 0
-1315 -1311 -1316 0
1315 -1311 1316 0
-1315 1311 1316 0
1309 1312 -1317 0
-1309 -1312 -1317 0
1309 -1312 1317 0
-1309 1312 1317 0
1317 1313 -1318 0
-1317 -1313 -1318 0
1317 -1313 1318 0
-1317 1313 1318 0
1310 1312 -1319 0
-1310 -1312 -1319 0
1310 -1312 1319 0
-1310 1312 1319 0
1319 1314 -1320 0
-1319 -1314 -1320 0
1319 -1314 1320 0
-1319 1314 1320 0
1311 1313 -1321 0
-1311 -1313 -1321 0
1311 -1313 1321 0
-1311 1313 1321 0
1321 1314 -1322 0
-1321 -1314 -1322 0
1321 -1314 1322 0
-1321 1314 1322 0
1316 1318 1320 1322 0
2 3 -1323 0
-2 -3 -1323 0
2 -3 1323 0
-2 3 1323 0
5 8 -1324 0
-5 -8 -1324 0
5 -8 1324 0
-5 8 1324 0
9 11 -1325 0
-9 -11 -1325 0
9 -11 1325 0
-9 11 1325 0
1325 12 -1326 0
-1325 -12 -1326 0
1325 -12 1326 0
-1325 12 1326 0
14 15 -1327 0
-14 -15 -1327 0
14 -15 1327 0
-14 15 1327 0
18 19 -1328 0
-18 -19 -1328 0
18 -19 1328 0
-18 19 1328 0
1328 20 -1329 0
-1328 -20 -1329 0
1328 -20 1329 0
-1328 20 1329 0
21 23 -1330 0
-21 -23 -1330 0
21 -23 1330 0
-21 23 1330 0
1330 24 -1331 0
-1330 -24 -1331 0
1330 -24 1331 0
-1330 24 1331 0
1323 1324 -1332 0
-1323 -1324 -1332 0
1323 -1324 1332 0
-1323 1324 1332 0
1332 1326 -1333 0
-1332 -1326 -1333 0
1332 -1326 1333 0
-1332 1326 1333 0
1323 1327 -1334 0
-1323 -1327 -1334 0
1323 -1327 1334 0
-1323 1327 1334 0
1334 1329 -1335 0
-1334 -1329 -1335 0
1334 -1329 1335 0
-1334 1329 1335 0
1324 1327 -1336 0
-1324 -1327 -1336 0
1324 -1327 1336 0
-1324 1327 1336 0
1336 1331 -1337 0
-1336 -1331 -1337 0
1336 -1331 1337 0
-1336 1331 1337 0
1326 1329 -1338 0
-1326 -1329 -1338 0
1326 -1329 1338 0
-1326 1329 1338 0
1338 1331 -1339 0
-1338 -1331 -1339 0
1338 -1331 1339 0
-1338 1331 1339 0
1333 1335 1337 1339 0
2 3 -1340 0
-2 -3 -1340 0
2 -3 1340 0
-2 3 1340 0
5 8 -1341 0
-5 -8 -1341 0
5 -8 1341 0
-5 8 1341 0
10 11 -1342 0
-10 -11 -1342 0
10 -11 1342 0
-10 11 1342 0
14 15 -1343 0
-14 -15 -1343 0
14 -15 1343 0
-14 15 1343 0
17 20 -1344 0
-17 -20 -1344 0
17 -20 1344 0
-17 20 1344 0
22 23 -1345 0
-22 -23 -1345 0
22 -23 1345 0
-22 23 1345 0
1340 1341 -1346 0
-1340 -1341 -1346 0
1340 -1341 1346 0
-1340 1341 1346 0
1346 1342 -1347 0
-1346 -1342 -1347 0
1346 -1342 1347 0
-1346 1342 1347 0
1340 1343 -1348 0
-1340 -1343 -1348 0
1340 -1343 1348 0
-1340 1343 1348 0
1348 1344 -1349 0
-1348 -1344 -1349 0
1348 -1344 1349 0
-1348 1344 1349 0
1341 1343 -1350 0
-1341 -1343 -1350 0
1341 -1343 1350 0
-1341 1343 1350 0
1350 1345 -1351 0
-1350 -1345 -1351 0
1350 -1345 1351 0
-1350 1345 1351 0
1342 1344 -1352 0
-1342 -1344 -1352 0
1342 -1344 1352 0
-1342 1344 1352 0
1352 1345 -1353 0
-1352 -1345 -1353 0
1352 -1345 1353 0
-1352 1345 1353 0
1347 1349 1351 1353 0
2 3 -1354 0
-2 -3 -1354 0
2 -3 1354 0
-2 3 1354 0
5 8 -1355 0
-5 -8 -1355 0
5 -8 1355 0
-5 8 1355 0
10 11 -1356 0
-10 -11 -1356 0
10 -11 1356 0
-10 11 1356 0
1356 12 -1357 0
-1356 -12 -1357 0
1356 -12 1357 0
-1356 12 1357 0
14 15 -1358 0
-14 -15 -1358 0
14 -15 1358 0
-14 15 1358 0
17 19 -1359 0
-17 -19 -1359 0
17 -19 1359 0
-17 19 1359 0
1359 20 -1360 0
-1359 -20 -1360 0
1359 -20 1360 0
-1359 20 1360 0
22 23 -1361 0
-22 -23 -1361 0
22 -23 1361 0
-22 23 1361 0
1361 24 -1362 0
-1361 -24 -1362 0
1361 -24 1362 0
-1361 24 1362 0
1354 1355 -1363 0
-1354 -1355 -1363 0
1354 -1355 1363 0
-1354 1355 1363 0
1363 1357 -1364 0
-1363 -1357 -1364 0
1363 -1357 1364 0
-1363 1357 1364 0
1354 1358 -1365 0
-1354 -1358 -1365 0
1354 -1358 1365 0
-1354 1358 1365 0
1365 1360 -1366 0
-1365 -1360 -1366 0
1365 -1360 1366 0
-1365 1360 1366 0
1355 1358 -1367 0
-1355 -1358 -1367 0
1355 -1358 1367 0
-1355 1358 1367 0
1367 1362 -1368 0
-1367 -1362 -1368 0
1367 -1362 1368 0
-1367 1362 1368 0
1357 1360 -1369 0
-1357 -1360 -1369 0
1357 -1360 1369 0
-1357 1360 1369 0
1369 1362 -1370 0
-1369 -1362 -1370 0
1369 -1362 1370 0
-1369 1362 1370 0
1364 1366 1368 1370 0
2 3 -1371 0
-2 -3 -1371 0
2 -3 1371 0
-2 3 1371 0
5 8 -1372 0
-5 -8 -1372 0
5 -8 1372 0
-5 8 1372 0
9 10 -1373 0
-9 -10 -1373 0
9 -10 1373 0
-9 10 1373 0
1373 11 -1374 0
-1373 -11 -1374 0
1373 -11 1374 0
-1373 11 1374 0
14 15 -1375 0
-14 -15 -1375 0
14 -15 1375 0
-14 15 1375 0
17 18 -1376 0
-17 -18 -1376 0
17 -18 1376 0
-17 18 1376 0
1376 20 -1377 0
-1376 -20 -1377 0
1376 -20 1377 0
-1376 20 1377 0
21 22 -1378 0
-21 -22 -1378 0
21 -22 1378 0
-21 22 1378 0
1378 23 -1379 0
-1378 -23 -1379 0
1378 -23 1379 0
-1378 23 1379 0
1371 1372 -1380 0
-1371 -1372 -1380 0
1371 -1372 1380 0
-1371 1372 1380 0
1380 1374 -1381 0
-1380 -1374 -1381 0
1380 -1374 1381 0
-1380 1374 1381 0
1371 1375 -1382 0
-1371 -1375 -1382 0
1371 -1375 1382 0
-1371 1375 1382 0
1382 1377 -1383 0
-1382 -1377 -1383 0
1382 -1377 1383 0
-1382 1377 1383 0
1372 1375 -1384 0
-1372 -1375 -1384 0
1372 -1375 1384 0
-1372 1375 1384 0
1384 1379 -1385 0
-1384 -1379 -1385 0
1384 -1379 1385 0
-1384 1379 1385 0
1374 1377 -1386 0
-1374 -1377 -1386 0
1374 -1377 1386 0
-1374 1377 1386 0
1386 1379 -1387 0
-1386 -1379 -1387 0
1386 -1379 1387 0
-1386 1379 1387 0
1381 1383 1385 1387 0
2 3 -1388 0
-2 -3 -1388 0
2 -3 1388 0
-2 3 1388 0
5 8 -1389 0
-5 -8 -1389 0
5 -8 1389 0
-5 8 1389 0
9 10 -1390 0
-9 -10 -1390 0
9 -10 1390 0
-9 10 1390 0
1390 12 -1391 0
-1390 -12 -1391 0
1390 -12 1391 0
-1390 12 1391 0
14 15 -1392 0
-14 -15 -1392 0
14 -15 1392 0
-14 15 1392 0
17 18 -1393 0
-17 -18 -1393 0
17 -18 1393 0
-17 18 1393 0
1393 19 -1394 0
-1393 -19 -1394 0
1393 -19 1394 0
-1393 19 1394 0
21 22 -1395 0
-21 -22 -1395 0
21 -22 1395 0
-21 22 1395 0
1395 24 -1396 0
-1395 -24 -1396 0
1395 -24 1396 0
-1395 24 1396 0
1388 1389 -1397 0
-1388 -1389 -1397 0
1388 -1389 1397 0
-1388 1389 1397 0
1397 1391 -1398 0
-1397 -1391 -1398 0
1397 -1391 1398 0
-1397 1391 1398 0
1388 1392 -1399 0
-1388 -1392 -1399 0
1388 -1392 1399 0
-1388 1392 1399 0
1399 1394 -1400 0
-1399 -1394 -1400 0
1399 -1394 1400 0
-1399 1394 1400 0
1389 1392 -1401 0
-1389 -1392 -1401 0
1389 -1392 1401 0
-1389 1392 1401 0
1401 1396 -1402 0
-1401 -1396 -1402 0
1401 -1396 1402 0
-1401 1396 1402 0
1391 1394 -1403 0
-1391 -1394 -1403 0
1391 -1394 1403 0
-1391 1394 1403 0
1403 1396 -1404 0
-1403 -1396 -1404 0
1403 -1396 1404 0
-1403 1396 1404 0
1398 1400 1402 1404 0
2 3 -1405 0
-2 -3 -1405 0
2 -3 1405 0
-2 3 1405 0
5 7 -1406 0
-5 -7 -1406 0
5 -7 1406 0
-5 7 1406 0
1406 8 -1407 0
-1406 -8 -1407 0
1406 -8 1407 0
-1406 8 1407 0
9 12 -1408 0
-9 -12 -1408 0
9 -12 1408 0
-9 12 1408 0
14 15 -1409 0
-14 -15 -1409 0
14 -15 1409 0
-14 15 1409 0
1409 16 -1410 0
-1409 -16 -1410 0
1409 -16 1410 0
-1409 16 1410 0
18 19 -1411 0
-18 -19 -1411 0
18 -19 1411 0
-18 19 1411 0
21 23 -1412 0
-21 -23 -1412 0
21 -23 1412 0
-21 23 1412 0
1412 24 -1413 0
-1412 -24 -1413 0
1412 -24 1413 0
-1412 24 1413 0
1405 1407 -1414 0
-1405 -1407 -1414 0
1405 -1407 1414 0
-1405 1407 1414 0
1414 1408 -1415 0
-1414 -1408 -1415 0
1414 -1408 1415 0
-1414 1408 1415 0
1405 1410 -1416 0
-1405 -1410 -1416 0
1405 -1410 1416 0
-1405 1410 1416 0
1416 1411 -1417 0
-1416 -1411 -1417 0
1416 -1411 1417 0
-1416 1411 1417 0
1407 1410 -1418 0
-1407 -1410 -1418 0
1407 -1410 1418 0
-1407 1410 1418 0
1418 1413 -1419 0
-1418 -1413 -1419 0
1418 -1413 1419 0
-1418 1413 1419 0
1408 1411 -1420 0
-1408 -1411 -1420 0
1408 -1411 1420 0
-1408 1411 1420 0
1420 1413 -1421 0
-1420 -1413 -1421 0
1420 -1413 1421 0
-1420 1413 1421 0
1415 1417 1419 1421 0
2 3 -1422 0
-2 -3 -1422 0
2 -3 1422 0
-2 3 1422 0
5 7 -1423 0
-5 -7 -1423 0
5 -7 1423 0
-5 7 1423 0
1423 8 -1424 0
-1423 -8 -1424 0
1423 -8 1424 0
-1423 8 1424 0
9 11 -1425 0
-9 -11 -1425 0
9 -11 1425 0
-9 11 1425 0
1425 12 -1426 0
-1425 -12 -1426 0
1425 -12 1426 0
-1425 12 1426 0
14 15 -1427 0
-14 -15 -1427 0
14 -15 1427 0
-14 15 1427 0
1427 16 -1428 0
-1427 -16 -1428 0
1427 -16 1428 0
-1427 16 1428 0
18 19 -1429 0
-18 -19 -1429 0
18 -19 1429 0
-18 19 1429 0
1429 20 -1430 0
-1429 -20 -1430 0
1429 -20 1430 0
-1429 20 1430 0
21 24 -1431 0
-21 -24 -1431 0
21 -24 1431 0
-21 24 1431 0
1422 1424 -1432 0
-1422 -1424 -1432 0
1422 -1424 1432 0
-1422 1424 1432 0
1432 1426 -1433 0
-1432 -1426 -1433 0
1432 -1426 1433 0
-1432 1426 1433 0
1422 1428 -1434 0
-1422 -1428 -1434 0
1422 -1428 1434 0
-1422 1428 1434 0
1434 1430 -1435 0
-1434 -1430 -1435 0
1434 -1430 1435 0
-1434 1430 1435 0
1424 1428 -1436 0
-1424 -1428 -1436 0
1424 -1428 1436 0
-1424 1428 1436 0
1436 1431 -1437 0
-1436 -1431 -1437 0
1436 -1431 1437 0
-1436 1431 1437 0
1426 1430 -1438 0
-1426 -1430 -1438 0
1426 -1430 1438 0
-1426 1430 1438 0
1438 1431 -1439 0
-1438 -1431 -1439 0
1438 -1431 1439 0
-1438 1431 1439 0
1433 1435 1437 1439 0
2 3 -1440 0
-2 -3 -1440 0
2 -3 1440 0
-2 3 1440 0
5 7 -1441 0
-5 -7 -1441 0
5 -7 1441 0
-5 7 1441 0
1441 8 -1442 0
-1441 -8 -1442 0
1441 -8 1442 0
-1441 8 1442 0
10 11 -1443 0
-10 -11 -1443 0
10 -11 1443 0
-10 11 1443 0
14 15 -1444 0
-14 -15 -1444 0
14 -15 1444 0
-14 15 1444 0
1444 16 -1445 0
-1444 -16 -1445 0
1444 -16 1445 0
-1444 16 1445 0
17 20 -1446 0
-17 -20 -1446 0
17 -20 1446 0
-17 20 1446 0
21 22 -1447 0
-21 -22 -1447 0
21 -22 1447 0
-21 22 1447 0
1447 23 -1448 0
-1447 -23 -1448 0
1447 -23 1448 0
-1447 23 1448 0
1440 1442 -1449 0
-1440 -1442 -1449 0
1440 -1442 1449 0
-1440 1442 1449 0
1449 1443 -1450 0
-1449 -1443 -1450 0
1449 -1443 1450 0
-1449 1443 1450 0
1440 1445 -1451 0
-1440 -1445 -1451 0
1440 -1445 1451 0
-1440 1445 1451 0
1451 1446 -1452 0
-1451 -1446 -1452 0
1451 -1446 1452 0
-1451 1446 1452 0
1442 1445 -1453 0
-1442 -1445 -1453 0
1442 -1445 1453 0
-1442 1445 1453 0
1453 1448 -1454 0
-1453 -1448 -1454 0
1453 -1448 1454 0
-1453 1448 1454 0
1443 1446 -1455 0
-1443 -1446 -1455 0
1443 -1446 1455 0
-1443 1446 1455 0
1455 1448 -1456 0
-1455 -1448 -1456 0
1455 -1448 1456 0
-1455 1448 1456 0
1450 1452 1454 1456 0
2 3 -1457 0
-2 -3 -1457 0
2 -3 1457 0
-2 3 1457 0
5 7 -1458 0
-5 -7 -1458 0
5 -7 1458 0
-5 7 1458 0
1458 8 -1459 0
-1458 -8 -1459 0
1458 -8 1459 0
-1458 8 1459 0
10 11 -1460 0
-10 -11 -1460 0
10 -11 1460 0
-10 11 1460 0
1460 12 -1461 0
-1460 -12 -1461 0
1460 -12 1461 0
-1460 12 1461 0
14 15 -1462 0
-14 -15 -1462 0
14 -15 1462 0
-14 15 1462 0
1462 16 -1463 0
-1462 -16 -1463 0
1462 -16 1463 0
-1462 16 1463 0
17 19 -1464 0
-17 -19 -1464 0
17 -19 1464 0
-17 19 1464 0
1464 20 -1465 0
-1464 -20 -1465 0
1464 -20 1465 0
-1464 20 1465 0
21 22 -1466 0
-21 -22 -1466 0
21 -22 1466 0
-21 22 1466 0
1466 24 -1467 0
-1466 -24 -1467 0
1466 -24 1467 0
-1466 24 1467 0
1457 1459 -1468 0
-1457 -1459 -1468 0
1457 -1459 1468 0
-1457 1459 1468 0
1468 1461 -1469 0
-1468 -1461 -1469 0
1468 -1461 1469 0
-1468 1461 1469 0
1457 1463 -1470 0
-1457 -1463 -1470 0
1457 -1463 1470 0
-1457 1463 1470 0
1470 1465 -1471 0
-1470 -1465 -1471 0
1470 -1465 1471 0
-1470 1465 1471 0
1459 1463 -1472 0
-1459 -1463 -1472 0
1459 -1463 1472 0
-1459 1463 1472 0
1472 1467 -1473 0
-1472 -1467 -1473 0
1472 -1467 1473 0
-1472 1467 1473 0
1461 1465 -1474 0
-1461 -1465 -1474 0
1461 -1465 1474 0
-1461 1465 1474 0
1474 1467 -1475 0
-1474 -1467 -1475 0
1474 -1467 1475 0
-1474 1467 1475 0
1469 1471 1473 1475 0
2 3 -1476 0
-2 -3 -1476 0
2 -3 1476 0
-2 3 1476 0
5 7 -1477 0
-5 -7 -1477 0
5 -7 1477 0
-5 7 1477 0
1477 8 -1478 0
-1477 -8 -1478 0
1477 -8 1478 0
-1477 8 1478 0
9 10 -1479 0
-9 -10 -1479 0
9 -10 1479 0
-9 10 1479 0
1479 11 -1480 0
-1479 -11 -1480 0
1479 -11 1480 0
-1479 11 1480 0
14 15 -1481 0
-14 -15 -1481 0
14 -15 1481 0
-14 15 1481 0
1481 16 -1482 0
-1481 -16 -1482 0
1481 -16 1482 0
-1481 16 1482 0
17 18 -1483 0
-17 -18 -1483 0
17 -18 1483 0
-17 18 1483 0
1483 20 -1484 0
-1483 -20 -1484 0
1483 -20 1484 0
-1483 20 1484 0
22 23 -1485 0
-22 -23 -1485 0
22 -23 1485 0
-22 23 1485 0
1476 1478 -1486 0
-1476 -1478 -1486 0
1476 -1478 1486 0
-1476 1478 1486 0
1486 1480 -1487 0
-1486 -1480 -1487 0
1486 -1480 1487 0
-1486 1480 1487 0
1476 1482 -1488 0
-1476 -1482 -1488 0
1476 -1482 1488 0
-1476 1482 1488 0
1488 1484 -1489 0
-1488 -1484 -1489 0
1488 -1484 1489 0
-1488 1484 1489 0
1478 1482 -1490 0
-1478 -1482 -1490 0
1478 -1482 1490 0
-1478 1482 1490 0
1490 1485 -1491 0
-1490 -1485 -1491 0
1490 -1485 1491 0
-1490 1485 1491 0
1480 1484 -1492 0
-1480 -1484 -1492 0
1480 -1484 1492 0
-1480 1484 1492 0
1492 1485 -1493 0
-1492 -1485 -1493 0
1492 -1485 1493 0
-1492 1485 1493 0
1487 1489 1491 1493 0
2 3 -1494 0
-2 -3 -1494 0
2 -3 1494 0
-2 3 1494 0
5 7 -1495 0
-5 -7 -1495 0
5 -7 1495 0
-5 7 1495 0
1495 8 -1496 0
-1495 -8 -1496 0
1495 -8 1496 0
-1495 8 1496 0
9 10 -1497 0
-9 -10 -1497 0
9 -10 1497 0
-9 10 1497 0
1497 12 -1498 0
-1497 -12 -1498 0
1497 -12 1498 0
-1497 12 1498 0
14 15 -1499 0
-14 -15 -1499 0
14 -15 1499 0
-14 15 1499 0
1499 16 -1500 0
-1499 -16 -1500 0
1499 -16 1500 0
-1499 16 1500 0
17 18 -1501 0
-17 -18 -1501 0
17 -18 1501 0
-17 18 1501 0
1501 19 -1502 0
-1501 -19 -1502 0
1501 -19 1502 0
-1501 19 1502 0
22 23 -1503 0
-22 -23 -1503 0
22 -23 1503 0
-22 23 1503 0
1503 24 -1504 0
-1503 -24 -1504 0
1503 -24 1504 0
-1503 24 1504 0
1494 1496 -1505 0
-1494 -1496 -1505 0
1494 -1496 1505 0
-1494 1496 1505 0
1505 1498 -1506 0
-1505 -1498 -1506 0
1505 -1498 1506 0
-1505 1498 1506 0
1494 1500 -1507 0
-1494 -1500 -1507 0
1494 -1500 1507 0
-1494 1500 1507 0
1507 1502 -1508 0
-1507 -1502 -1508 0
1507 -1502 1508 0
-1507 1502 1508 0
1496 1500 -1509 0
-1496 -1500 -1509 0
1496 -1500 1509 0
-1496 1500 1509 0
1509 1504 -1510 0
-1509 -1504 -1510 0
1509 -1504 1510 0
-1509 1504 1510 0
1498 1502 -1511 0
-1498 -1502 -1511 0
1498 -1502 1511 0
-1498 1502 1511 0
1511 1504 -1512 0
-1511 -1504 -1512 0
1511 -1504 1512 0
-1511 1504 1512 0
1506 1508 1510 1512 0
2 3 -1513 0
-2 -3 -1513 0
2 -3 1513 0
-2 3 1513 0
6 7 -1514 0
-6 -7 -1514 0
6 -7 1514 0
-6 7 1514 0
9 12 -1515 0
-9 -12 -1515 0
9 -12 1515 0
-9 12 1515 0
13 16 -1516 0
-13 -16 -1516 0
13 -16 1516 0
-13 16 1516 0
18 19 -1517 0
-18 -19 -1517 0
18 -19 1517 0
-18 19 1517 0
22 23 -1518 0
-22 -23 -1518 0
22 -23 1518 0
-22 23 1518 0
1513 1514 -1519 0
-1513 -1514 -1519 0
1513 -1514 1519 0
-1513 1514 1519 0
1519 1515 -1520 0
-1519 -1515 -1520 0
1519 -1515 1520 0
-1519 1515 1520 0
1513 1516 -1521 0
-1513 -1516 -1521 0
1513 -1516 1521 0
-1513 1516 1521 0
1521 1517 -1522 0
-1521 -1517 -1522 0
1521 -1517 1522 0
-1521 1517 1522 0
1514 1516 -1523 0
-1514 -1516 -1523 0
1514 -1516 1523 0
-1514 1516 1523 0
1523 1518 -1524 0
-1523 -1518 -1524 0
1523 -1518 1524 0
-1523 1518 1524 0
1515 1517 -1525 0
-1515 -1517 -1525 0
1515 -1517 1525 0
-1515 1517 1525 0
1525 1518 -1526 0
-1525 -1518 -1526 0
1525 -1518 1526 0
-1525 1518 1526 0
1520 1522 1524 1526 0
2 3 -1527 0
-2 -3 -1527 0
2 -3 1527 0
-2 3 1527 0
6 7 -1528 0
-6 -7 -1528 0
6 -7 1528 0
-6 7 1528 0
9 11 -1529 0
-9 -11 -1529 0
9 -11 1529 0
-9 11 1529 0
1529 12 -1530 0
-1529 -12 -1530 0
1529 -12 1530 0
-1529 12 1530 0
13 16 -1531 0
-13 -16 -1531 0
13 -16 1531 0
-13 16 1531 0
18 19 -1532 0
-18 -19 -1532 0
18 -19 1532 0
-18 19 1532 0
1532 20 -1533 0
-1532 -20 -1533 0
1532 -20 1533 0
-1532 20 1533 0
22 23 -1534 0
-22 -23 -1534 0
22 -23 1534 0
-22 23 1534 0
1534 24 -1535 0
-1534 -24 -1535 0
1534 -24 1535 0
-1534 24 1535 0
1527 1528 -1536 0
-1527 -1528 -1536 0
1527 -1528 1536 0
-1527 1528 1536 0
1536 1530 -1537 0
-1536 -1530 -1537 0
1536 -1530 1537 0
-1536 1530 1537 0
1527 1531 -1538 0
-1527 -1531 -1538 0
1527 -1531 1538 0
-1527 1531 1538 0
1538 1533 -1539 0
-1538 -1533 -1539 0
1538 -1533 1539 0
-1538 1533 1539 0
1528 1531 -1540 0
-1528 -1531 -1540 0
1528 -1531 1540 0
-1528 1531 1540 0
1540 1535 -1541 0
-1540 -1535 -1541 0
1540 -1535 1541 0
-1540 1535 1541 0
1530 1533 -1542 0
-1530 -1533 -1542 0
1530 -1533 1542 0
-1530 1533 1542 0
1542 1535 -1543 0
-1542 -1535 -1543 0
1542 -1535 1543 0
-1542 1535 1543 0
1537 1539 1541 1543 0
2 3 -1544 0
-2 -3 -1544 0
2 -3 1544 0
-2 3 1544 0
6 7 -1545 0
-6 -7 -1545 0
6 -7 1545 0
-6 7 1545 0
10 11 -1546 0
-10 -11 -1546 0
10 -11 1546 0
-10 11 1546 0
13 16 -1547 0
-13 -16 -1547 0
13 -16 1547 0
-13 16 1547 0
17 20 -1548 0
-17 -20 -1548 0
17 -20 1548 0
-17 20 1548 0
21 24 -1549 0
-21 -24 -1549 0
21 -24 1549 0
-21 24 1549 0
1544 1545 -1550 0
-1544 -1545 -1550 0
1544 -1545 1550 0
-1544 1545 1550 0
1550 1546 -1551 0
-1550 -1546 -1551 0
1550 -1546 1551 0
-1550 1546 1551 0
1544 1547 -1552 0
-1544 -1547 -1552 0
1544 -1547 1552 0
-1544 1547 1552 0
1552 1548 -1553 0
-1552 -1548 -1553 0
1552 -1548 1553 0
-1552 1548 1553 0
1545 1547 -1554 0
-1545 -1547 -1554 0
1545 -1547 1554 0
-1545 1547 1554 0
1554 1549 -1555 0
-1554 -1549 -1555 0
1554 -1549 1555 0
-1554 1549 1555 0
1546 1548 -1556 0
-1546 -1548 -1556 0
1546 -1548 1556 0
-1546 1548 1556 0
1556 1549 -1557 0
-1556 -1549 -1557 0
1556 -1549 1557 0
-1556 1549 1557 0
1551 1553 1555 1557 0
2 3 -1558 0
-2 -3 -1558 0
2 -3 1558 0
-2 3 1558 0
6 7 -1559 0
-6 -7 -1559 0
6 -7 1559 0
-6 7 1559 0
10 11 -1560 0
-10 -11 -1560 0
10 -11 1560 0
-10 11 1560 0
1560 12 -1561 0
-1560 -12 -1561 0
1560 -12 1561 0
-1560 12 1561 0
13 16 -1562 0
-13 -16 -1562 0
13 -16 1562 0
-13 16 1562 0
17 19 -1563 0
-17 -19 -1563 0
17 -19 1563 0
-17 19 1563 0
1563 20 -1564 0
-1563 -20 -1564 0
1563 -20 1564 0
-1563 20 1564 0
21 23 -1565 0
-21 -23 -1565 0
21 -23 1565 0
-21 23 1565 0
1565 24 -1566 0
-1565 -24 -1566 0
1565 -24 1566 0
-1565 24 1566 0
1558 1559 -1567 0
-1558 -1559 -1567 0
1558 -1559 1567 0
-1558 1559 1567 0
1567 1561 -1568 0
-1567 -1561 -1568 0
1567 -1561 1568 0
-1567 1561 1568 0
1558 1562 -1569 0
-1558 -1562 -1569 0
1558 -1562 1569 0
-1558 1562 1569 0
1569 1564 -1570 0
-1569 -1564 -1570 0
1569 -1564 1570 0
-1569 1564 1570 0
1559 1562 -1571 0
-1559 -1562 -1571 0
1559 -1562 1571 0
-1559 1562 1571 0
1571 1566 -1572 0
-1571 -1566 -1572 0
1571 -1566 1572 0
-1571 1566 1572 0
1561 1564 -1573 0
-1561 -1564 -1573 0
1561 -1564 1573 0
-1561 1564 1573 0
1573 1566 -1574 0
-1573 -1566 -1574 0
1573 -1566 1574 0
-1573 1566 1574 0
1568 1570 1572 1574 0
2 3 -1575 0
-2 -3 -1575 0
2 -3 1575 0
-2 3 1575 0
6 7 -1576 0
-6 -7 -1576 0
6 -7 1576 0
-6 7 1576 0
9 10 -1577 0
-9 -10 -1577 0
9 -10 1577 0
-9 10 1577 0
1577 11 -1578 0
-1577 -11 -1578 0
1577 -11 1578 0
-1577 11 1578 0
13 16 -1579 0
-13 -16 -1579 0
13 -16 1579 0
-13 16 1579 0
17 18 -1580 0
-17 -18 -1580 0
17 -18 1580 0
-17 18 1580 0
1580 20 -1581 0
-1580 -20 -1581 0
1580 -20 1581 0
-1580 20 1581 0
21 22 -1582 0
-21 -22 -1582 0
21 -22 1582 0
-21 22 1582 0
1582 24 -1583 0
-1582 -24 -1583 0
1582 -24 1583 0
-1582 24 1583 0
1575 1576 -1584 0
-1575 -1576 -1584 0
1575 -1576 1584 0
-1575 1576 1584 0
1584 1578 -1585 0
-1584 -1578 -1585 0
1584 -1578 1585 0
-1584 1578 1585 0
1575 1579 -1586 0
-1575 -1579 -1586 0
1575 -1579 1586 0
-1575 1579 1586 0
1586 1581 -1587 0
-1586 -1581 -1587 0
1586 -1581 1587 0
-1586 1581 1587 0
1576 1579 -1588 0
-1576 -1579 -1588 0
1576 -1579 1588 0
-1576 1579 1588 0
1588 1583 -1589 0
-1588 -1583 -1589 0
1588 -1583 1589 0
-1588 1583 1589 0
1578 1581 -1590 0
-1578 -1581 -1590 0
1578 -1581 1590 0
-1578 1581 1590 0
1590 1583 -1591 0
-1590 -1583 -1591 0
1590 -1583 1591 0
-1590 1583 1591 0
1585 1587 1589 1591 0
2 3 -1592 0
-2 -3 -1592 0
2 -3 1592 0
-2 3 1592 0
6 7 -1593 0
-6 -7 -1593 0
6 -7 1593 0
-6 7 1593 0
9 10 -1594 0
-9 -10 -1594 0
9 -10 1594 0
-9 10 1594 0
1594 12 -1595 0
-1594 -12 -1595 0
1594 -12 1595 0
-1594 12 1595 0
13 16 -1596 0
-13 -16 -1596 0
13 -16 1596 0
-13 16 1596 0
17 18 -1597 0
-17 -18 -1597 0
17 -18 1597 0
-17 18 1597 0
1597 19 -1598 0
-1597 -19 -1598 0
1597 -19 1598 0
-1597 19 1598 0
21 22 -1599 0
-21 -22 -1599 0
21 -22 1599 0
-21 22 1599 0
1599 23 -1600 0
-1599 -23 -1600 0
1599 -23 1600 0
-1599 23 1600 0
1592 1593 -1601 0
-1592 -1593 -1601 0
1592 -1593 1601 0
-1592 1593 1601 0
1601 1595 -1602 0
-1601 -1595 -1602 0
1601 -1595 1602 0
-1601 1595 1602 0
1592 1596 -1603 0
-1592 -1596 -1603 0
1592 -1596 1603 0
-1592 1596 1603 0
1603 1598 -1604 0
-1603 -1598 -1604 0
1603 -1598 1604 0
-1603 1598 1604 0
1593 1596 -1605 0
-1593 -1596 -1605 0
1593 -1596 1605 0
-1593 1596 1605 0
1605 1600 -1606 0
-1605 -1600 -1606 0
1605 -1600 1606 0
-1605 1600 1606 0
1595 1598 -1607 0
-1595 -1598 -1607 0
1595 -1598 1607 0
-1595 1598 1607 0
1607 1600 -1608 0
-1607 -1600 -1608 0
1607 -1600 1608 0
-1607 1600 1608 0
1602 1604 1606 1608 0
2 3 -1609 0
-2 -3 -1609 0
2 -3 1609 0
-2 3 1609 0
6 7 -1610 0
-6 -7 -1610 0
6 -7 1610 0
-6 7 1610 0
1610 8 -1611 0
-1610 -8 -1611 0
1610 -8 1611 0
-1610 8 1611 0
9 12 -1612 0
-9 -12 -1612 0
9 -12 1612 0
-9 12 1612 0
13 15 -1613 0
-13 -15 -1613 0
13 -15 1613 0
-13 15 1613 0
1613 16 -1614 0
-1613 -16 -1614 0
1613 -16 1614 0
-1613 16 1614 0
18 19 -1615 0
-18 -19 -1615 0
18 -19 1615 0
-18 19 1615 0
21 22 -1616 0
-21 -22 -1616 0
21 -22 1616 0
-21 22 1616 0
1616 23 -1617 0
-1616 -23 -1617 0
1616 -23 1617 0
-1616 23 1617 0
1609 1611 -1618 0
-1609 -1611 -1618 0
1609 -1611 1618 0
-1609 1611 1618 0
1618 1612 -1619 0
-1618 -1612 -1619 0
1618 -1612 1619 0
-1618 1612 1619 0
1609 1614 -1620 0
-1609 -1614 -1620 0
1609 -1614 1620 0
-1609 1614 1620 0
1620 1615 -1621 0
-1620 -1615 -1621 0
1620 -1615 1621 0
-1620 1615 1621 0
1611 1614 -1622 0
-1611 -1614 -1622 0
1611 -1614 1622 0
-1611 1614 1622 0
1622 1617 -1623 0
-1622 -1617 -1623 0
1622 -1617 1623 0
-1622 1617 1623 0
1612 1615 -1624 0
-1612 -1615 -1624 0
1612 -1615 1624 0
-1612 1615 1624 0
1624 1617 -1625 0
-1624 -1617 -1625 0
1624 -1617 1625 0
-1624 1617 1625 0
1619 1621 1623 1625 0
2 3 -1626 0
-2 -3 -1626 0
2 -3 1626 0
-2 3 1626 0
6 7 -1627 0
-6 -7 -1627 0
6 -7 1627 0
-6 7 1627 0
1627 8 -1628 0
-1627 -8 -1628 0
1627 -8 1628 0
-1627 8 1628 0
9 11 -1629 0
-9 -11 -1629 0
9 -11 1629 0
-9 11 1629 0
1629 12 -1630 0
-1629 -12 -1630 0
1629 -12 1630 0
-1629 12 1630 0
13 15 -1631 0
-13 -15 -1631 0
13 -15 1631 0
-13 15 1631 0
1631 16 -1632 0
-1631 -16 -1632 0
1631 -16 1632 0
-1631 16 1632 0
18 19 -1633 0
-18 -19 -1633 0
18 -19 1633 0
-18 19 1633 0
1633 20 -1634 0
-1633 -20 -1634 0
1633 -20 1634 0
-1633 20 1634 0
21 22 -1635 0
-21 -22 -1635 0
21 -22 1635 0
-21 22 1635 0
1635 24 -1636 0
-1635 -24 -1636 0
1635 -24 1636 0
-1635 24 1636 0
1626 1628 -1637 0
-1626 -1628 -1637 0
1626 -1628 1637 0
-1626 1628 1637 0
1637 1630 -1638 0
-1637 -1630 -1638 0
1637 -1630 1638 0
-1637 1630 1638 0
1626 1632 -1639 0
-1626 -1632 -1639 0
1626 -1632 1639 0
-1626 1632 1639 0
1639 1634 -1640 0
-1639 -1634 -1640 0
1639 -1634 1640 0
-1639 1634 1640 0
1628 1632 -1641 0
-1628 -1632 -1641 0
1628 -1632 1641 0
-1628 1632 1641 0
1641 1636 -1642 0
-1641 -1636 -1642 0
1641 -1636 1642 0
-1641 1636 1642 0
1630 1634 -1643 0
-1630 -1634 -1643 0
1630 -1634 1643 0
-1630 1634 1643 0
1643 1636 -1644 0
-1643 -1636 -1644 0
1643 -1636 1644 0
-1643 1636 1644 0
1638 1640 1642 1644 0
2 3 -1645 0
-2 -3 -1645 0
2 -3 1645 0
-2 3 1645 0
6 7 -1646 0
-6 -7 -1646 0
6 -7 1646 0
-6 7 1646 0
1646 8 -1647 0
-1646 -8 -1647 0
1646 -8 1647 0
-1646 8 1647 0
10 11 -1648 0
-10 -11 -1648 0
10 -11 1648 0
-10 11 1648 0
13 15 -1649 0
-13 -15 -1649 0
13 -15 1649 0
-13 15 1649 0
1649 16 -1650 0
-1649 -16 -1650 0
1649 -16 1650 0
-1649 16 1650 0
17 20 -1651 0
-17 -20 -1651 0
17 -20 1651 0
-17 20 1651 0
21 23 -1652 0
-21 -23 -1652 0
21 -23 1652 0
-21 23 1652 0
1652 24 -1653 0
-1652 -24 -1653 0
1652 -24 1653 0
-1652 24 1653 0
1645 1647 -1654 0
-1645 -1647 -1654 0
1645 -1647 1654 0
-1645 1647 1654 0
1654 1648 -1655 0
-1654 -1648 -1655 0
1654 -1648 1655 0
-1654 1648 1655 0
1645 1650 -1656 0
-1645 -1650 -1656 0
1645 -1650 1656 0
-1645 1650 1656 0
1656 1651 -1657 0
-1656 -1651 -1657 0
1656 -1651 1657 0
-1656 1651 1657 0
1647 1650 -1658 0
-1647 -1650 -1658 0
1647 -1650 1658 0
-1647 1650 1658 0
1658 1653 -1659 0
-1658 -1653 -1659 0
1658 -1653 1659 0
-1658 1653 1659 0
1648 1651 -1660 0
-1648 -1651 -1660 0
1648 -1651 1660 0
-1648 1651 1660 0
1660 1653 -1661 0
-1660 -1653 -1661 0
1660 -1653 1661 0
-1660 1653 1661 0
1655 1657 1659 1661 0
2 3 -1662 0
-2 -3 -1662 0
2 -3 1662 0
-2 3 1662 0
6 7 -1663 0
-6 -7 -1663 0
6 -7 1663 0
-6 7 1663 0
1663 8 -1664 0
-1663 -8 -1664 0
1663 -8 1664 0
-1663 8 1664 0
10 11 -1665 0
-10 -11 -1665 0
10 -11 1665 0
-10 11 1665 0
1665 12 -1666 0
-1665 -12 -1666 0
1665 -12 1666 0
-1665 12 1666 0
13 15 -1667 0
-13 -15 -1667 0
13 -15 1667 0
-13 15 1667 0
1667 16 -1668 0
-1667 -16 -1668 0
1667 -16 1668 0
-1667 16 1668 0
17 19 -1669 0
-17 -19 -1669 0
17 -19 1669 0
-17 19 1669 0
1669 20 -1670 0
-1669 -20 -1670 0
1669 -20 1670 0
-1669 20 1670 0
21 24 -1671 0
-21 -24 -1671 0
21 -24 1671 0
-21 24 1671 0
1662 1664 -1672 0
-1662 -1664 -1672 0
1662 -1664 1672 0
-1662 1664 1672 0
1672 1666 -1673 0
-1672 -1666 -1673 0
1672 -1666 1673 0
-1672 1666 1673 0
1662 1668 -1674 0
-1662 -1668 -1674 0
1662 -1668 1674 0
-1662 1668 1674 0
1674 1670 -1675 0
-1674 -1670 -1675 0
1674 -1670 1675 0
-1674 1670 1675 0
1664 1668 -1676 0
-1664 -1668 -1676 0
1664 -1668 1676 0
-1664 1668 1676 0
1676 1671 -1677 0
-1676 -1671 -1677 0
1676 -1671 1677 0
-1676 1671 1677 0
1666 1670 -1678 0
-1666 -1670 -1678 0
1666 -1670 1678 0
-1666 1670 1678 0
1678 1671 -1679 0
-1678 -1671 -1679 0
1678 -1671 1679 0
-1678 1671 1679 0
1673 1675 1677 1679 0
2 3 -1680 0
-2 -3 -1680 0
2 -3 1680 0
-2 3 1680 0
6 7 -1681 0
-6 -7 -1681 0
6 -7 1681 0
-6 7 1681 0
1681 8 -1682 0
-1681 -8 -1682 0
1681 -8 1682 0
-1681 8 1682 0
9 10 -1683 0
-9 -10 -1683 0
9 -10 1683 0
-9 10 1683 0
1683 11 -1684 0
-1683 -11 -1684 0
1683 -11 1684 0
-1683 11 1684 0
13 15 -1685 0
-13 -15 -1685 0
13 -15 1685 0
-13 15 1685 0
1685 16 -1686 0
-1685 -16 -1686 0
1685 -16 1686 0
-1685 16 1686 0
17 18 -1687 0
-17 -18 -1687 0
17 -18 1687 0
-17 18 1687 0
1687 20 -1688 0
-1687 -20 -1688 0
1687 -20 1688 0
-1687 20 1688 0
22 23 -1689 0
-22 -23 -1689 0
22 -23 1689 0
-22 23 1689 0
1689 24 -1690 0
-1689 -24 -1690 0
1689 -24 1690 0
-1689 24 1690 0
1680 1682 -1691 0
-1680 -1682 -1691 0
1680 -1682 1691 0
-1680 1682 1691 0
1691 1684 -1692 0
-1691 -1684 -1692 0
1691 -1684 1692 0
-1691 1684 1692 0
1680 1686 -1693 0
-1680 -1686 -1693 0
1680 -1686 1693 0
-1680 1686 1693 0
1693 1688 -1694 0
-1693 -1688 -1694 0
1693 -1688 1694 0
-1693 1688 1694 0
1682 1686 -1695 0
-1682 -1686 -1695 0
1682 -1686 1695 0
-1682 1686 1695 0
1695 1690 -1696 0
-1695 -1690 -1696 0
1695 -1690 1696 0
-1695 1690 1696 0
1684 1688 -1697 0
-1684 -1688 -1697 0
1684 -1688 1697 0
-1684 1688 1697 0
1697 1690 -1698 0
-1697 -1690 -1698 0
1697 -1690 1698 0
-1697 1690 1698 0
1692 1694 1696 1698 0
2 3 -1699 0
-2 -3 -1699 0
2 -3 1699 0
-2 3 1699 0
6 7 -1700 0
-6 -7 -1700 0
6 -7 1700 0
-6 7 1700 0
1700 8 -1701 0
-1700 -8 -1701 0
1700 -8 1701 0
-1700 8 1701 0
9 10 -1702 0
-9 -10 -1702 0
9 -10 1702 0
-9 10 1702 0
1702 12 -1703 0
-1702 -12 -1703 0
1702 -12 1703 0
-1702 12 1703 0
13 15 -1704 0
-13 -15 -1704 0
13 -15 1704 0
-13 15 1704 0
1704 16 -1705 0
-1704 -16 -1705 0
1704 -16 1705 0
-1704 16 1705 0
17 18 -1706 0
-17 -18 -1706 0
17 -18 1706 0
-17 18 1706 0
1706 19 -1707 0
-1706 -19 -1707 0
1706 -19 1707 0
-1706 19 1707 0
22 23 -1708 0
-22 -23 -1708 0
22 -23 1708 0
-22 23 1708 0
1699 1701 -1709 0
-1699 -1701 -1709 0
1699 -1701 1709 0
-1699 1701 1709 0
1709 1703 -1710 0
-1709 -1703 -1710 0
1709 -1703 1710 0
-1709 1703 1710 0
1699 1705 -1711 0
-1699 -1705 -1711 0
1699 -1705 1711 0
-1699 1705 1711 0
1711 1707 -1712 0
-1711 -1707 -1712 0
1711 -1707 1712 0
-1711 1707 1712 0
1701 1705 -1713 0
-1701 -1705 -1713 0
1701 -1705 1713 0
-1701 1705 1713 0
1713 1708 -1714 0
-1713 -1708 -1714 0
1713 -1708 1714 0
-1713 1708 1714 0
1703 1707 -1715 0
-1703 -1707 -1715 0
1703 -1707 1715 0
-1703 1707 1715 0
1715 1708 -1716 0
-1715 -1708 -1716 0
1715 -1708 1716 0
-1715 1708 1716 0
1710 1712 1714 1716 0
2 3 -1717 0
-2 -3 -1717 0
2 -3 1717 0
-2 3 1717 0
5 6 -1718 0
-5 -6 -1718 0
5 -6 1718 0
-5 6 1718 0
1718 7 -1719 0
-1718 -7 -1719 0
1718 -7 1719 0
-1718 7 1719 0
9 12 -1720 0
-9 -12 -1720 0
9 -12 1720 0
-9 12 1720 0
13 14 -1721 0
-13 -14 -1721 0
13 -14 1721 0
-13 14 1721 0
1721 16 -1722 0
-1721 -16 -1722 0
1721 -16 1722 0
-1721 16 1722 0
18 19 -1723 0
-18 -19 -1723 0
18 -19 1723 0
-18 19 1723 0
22 23 -1724 0
-22 -23 -1724 0
22 -23 1724 0
-22 23 1724 0
1724 24 -1725 0
-1724 -24 -1725 0
1724 -24 1725 0
-1724 24 1725 0
1717 1719 -1726 0
-1717 -1719 -1726 0
1717 -1719 1726 0
-1717 1719 1726 0
1726 1720 -1727 0
-1726 -1720 -1727 0
1726 -1720 1727 0
-1726 1720 1727 0
1717 1722 -1728 0
-1717 -1722 -1728 0
1717 -1722 1728 0
-1717 1722 1728 0
1728 1723 -1729 0
-1728 -1723 -1729 0
1728 -1723 1729 0
-1728 1723 1729 0
1719 1722 -1730 0
-1719 -1722 -1730 0
1719 -1722 1730 0
-1719 1722 1730 0
1730 1725 -1731 0
-1730 -1725 -1731 0
1730 -1725 1731 0
-1730 1725 1731 0
1720 1723 -1732 0
-1720 -1723 -1732 0
1720 -1723 1732 0
-1720 1723 1732 0
1732 1725 -1733 0
-1732 -1725 -1733 0
1732 -1725 1733 0
-1732 1725 1733 0
1727 1729 1731 1733 0
2 3 -1734 0
-2 -3 -1734 0
2 -3 1734 0
-2 3 1734 0
5 6 -1735 0
-5 -6 -1735 0
5 -6 1735 0
-5 6 1735 0
1735 7 -1736 0
-1735 -7 -1736 0
1735 -7 1736 0
-1735 7 1736 0
9 11 -1737 0
-9 -11 -1737 0
9 -11 1737 0
-9 11 1737 0
1737 12 -1738 0
-1737 -12 -1738 0
1737 -12 1738 0
-1737 12 1738 0
13 14 -1739 0
-13 -14 -1739 0
13 -14 1739 0
-13 14 1739 0
1739 16 -1740 0
-1739 -16 -1740 0
1739 -16 1740 0
-1739 16 1740 0
18 19 -1741 0
-18 -19 -1741 0
18 -19 1741 0
-18 19 1741 0
1741 20 -1742 0
-1741 -20 -1742 0
1741 -20 1742 0
-1741 20 1742 0
22 23 -1743 0
-22 -23 -1743 0
22 -23 1743 0
-22 23 1743 0
1734 1736 -1744 0
-1734 -1736 -1744 0
1734 -1736 1744 0
-1734 1736 1744 0
1744 1738 -1745 0
-1744 -1738 -1745 0
1744 -1738 1745 0
-1744 1738 1745 0
1734 1740 -1746 0
-1734 -1740 -1746 0
1734 -1740 1746 0
-1734 1740 1746 0
1746 1742 -1747 0
-1746 -1742 -1747 0
1746 -1742 1747 0
-1746 1742 1747 0
1736 1740 -1748 0
-1736 -1740 -1748 0
1736 -1740 1748 0
-1736 1740 1748 0
1748 1743 -1749 0
-1748 -1743 -1749 0
1748 -1743 1749 0
-1748 1743 1749 0
1738 1742 -1750 0
-1738 -1742 -1750 0
1738 -1742 1750 0
-1738 1742 1750 0
1750 1743 -1751 0
-1750 -1743 -1751 0
1750 -1743 1751 0
-1750 1743 1751 0
1745 1747 1749 1751 0
2 3 -1752 0
-2 -3 -1752 0
2 -3 1752 0
-2 3 1752 0
5 6 -1753 0
-5 -6 -1753 0
5 -6 1753 0
-5 6 1753 0
1753 7 -1754 0
-1753 -7 -1754 0
1753 -7 1754 0
-1753 7 1754 0
10 11 -1755 0
-10 -11 -1755 0
10 -11 1755 0
-10 11 1755 0
13 14 -1756 0
-13 -14 -1756 0
13 -14 1756 0
-13 14 1756 0
1756 16 -1757 0
-1756 -16 -1757 0
1756 -16 1757 0
-1756 16 1757 0
17 20 -1758 0
-17 -20 -1758 0
17 -20 1758 0
-17 20 1758 0
21 22 -1759 0
-21 -22 -1759 0
21 -22 1759 0
-21 22 1759 0
1759 24 -1760 0
-1759 -24 -1760 0
1759 -24 1760 0
-1759 24 1760 0
1752 1754 -1761 0
-1752 -1754 -1761 0
1752 -1754 1761 0
-1752 1754 1761 0
1761 1755 -1762 0
-1761 -1755 -1762 0
1761 -1755 1762 0
-1761 1755 1762 0
1752 1757 -1763 0
-1752 -1757 -1763 0
1752 -1757 1763 0
-1752 1757 1763 0
1763 1758 -1764 0
-1763 -1758 -1764 0
1763 -1758 1764 0
-1763 1758 1764 0
1754 1757 -1765 0
-1754 -1757 -1765 0
1754 -1757 1765 0
-1754 1757 1765 0
1765 1760 -1766 0
-1765 -1760 -1766 0
1765 -1760 1766 0
-1765 1760 1766 0
1755 1758 -1767 0
-1755 -1758 -1767 0
1755 -1758 1767 0
-1755 1758 1767 0
1767 1760 -1768 0
-1767 -1760 -1768 0
1767 -1760 1768 0
-1767 1760 1768 0
1762 1764 1766 1768 0
2 3 -1769 0
-2 -3 -1769 0
2 -3 1769 0
-2 3 1769 0
5 6 -1770 0
-5 -6 -1770 0
5 -6 1770 0
-5 6 1770 0
1770 7 -1771 0
-1770 -7 -1771 0
1770 -7 1771 0
-1770 7 1771 0
10 11 -1772 0
-10 -11 -1772 0
10 -11 1772 0
-10 11 1772 0
1772 12 -1773 0
-1772 -12 -1773 0
1772 -12 1773 0
-1772 12 1773 0
13 14 -1774 0
-13 -14 -1774 0
13 -14 1774 0
-13 14 1774 0
1774 16 -1775 0
-1774 -16 -1775 0
1774 -16 1775 0
-1774 16 1775 0
17 19 -1776 0
-17 -19 -1776 0
17 -19 1776 0
-17 19 1776 0
1776 20 -1777 0
-1776 -20 -1777 0
1776 -20 1777 0
-1776 20 1777 0
21 22 -1778 0
-21 -22 -1778 0
21 -22 1778 0
-21 22 1778 0
1778 23 -1779 0
-1778 -23 -1779 0
1778 -23 1779 0
-1778 23 1779 0
1769 1771 -1780 0
-1769 -1771 -1780 0
1769 -1771 1780 0
-1769 1771 1780 0
1780 1773 -1781 0
-1780 -1773 -1781 0
1780 -1773 1781 0
-1780 1773 1781 0
1769 1775 -1782 0
-1769 -1775 -1782 0
1769 -1775 1782 0
-1769 1775 1782 0
1782 1777 -1783 0
-1782 -1777 -1783 0
1782 -1777 1783 0
-1782 1777 1783 0
1771 1775 -1784 0
-1771 -1775 -1784 0
1771 -1775 1784 0
-1771 1775 1784 0
1784 1779 -1785 0
-1784 -1779 -1785 0
1784 -1779 1785 0
-1784 1779 1785 0
1773 1777 -1786 0
-1773 -1777 -1786 0
1773 -1777 1786 0
-1773 1777 1786 0
1786 1779 -1787 0
-1786 -1779 -1787 0
1786 -1779 1787 0
-1786 1779 1787 0
1781 1783 1785 1787 0
2 3 -1788 0
-2 -3 -1788 0
2 -3 1788 0
-2 3 1788 0
5 6 -1789 0
-5 -6 -1789 0
5 -6 1789 0
-5 6 1789 0
1789 7 -1790 0
-1789 -7 -1790 0
1789 -7 1790 0
-1789 7 1790 0
9 10 -1791 0
-9 -10 -1791 0
9 -10 1791 0
-9 10 1791 0
1791 11 -1792 0
-1791 -11 -1792 0
1791 -11 1792 0
-1791 11 1792 0
13 14 -1793 0
-13 -14 -1793 0
13 -14 1793 0
-13 14 1793 0
1793 16 -1794 0
-1793 -16 -1794 0
1793 -16 1794 0
-1793 16 1794 0
17 18 -1795 0
-17 -18 -1795 0
17 -18 1795 0
-17 18 1795 0
1795 20 -1796 0
-1795 -20 -1796 0
1795 -20 1796 0
-1795 20 1796 0
21 24 -1797 0
-21 -24 -1797 0
21 -24 1797 0
-21 24 1797 0
1788 1790 -1798 0
-1788 -1790 -1798 0
1788 -1790 1798 0
-1788 1790 1798 0
1798 1792 -1799 0
-1798 -1792 -1799 0
1798 -1792 1799 0
-1798 1792 1799 0
1788 1794 -1800 0
-1788 -1794 -1800 0
1788 -1794 1800 0
-1788 1794 1800 0
1800 1796 -1801 0
-1800 -1796 -1801 0
1800 -1796 1801 0
-1800 1796 1801 0
1790 1794 -1802 0
-1790 -1794 -1802 0
1790 -1794 1802 0
-1790 1794 1802 0
1802 1797 -1803 0
-1802 -1797 -1803 0
1802 -1797 1803 0
-1802 1797 1803 0
1792 1796 -1804 0
-1792 -1796 -1804 0
1792 -1796 1804 0
-1792 1796 1804 0
1804 1797 -1805 0
-1804 -1797 -1805 0
1804 -1797 1805 0
-1804 1797 1805 0
1799 1801 1803 1805 0
2 3 -1806 0
-2 -3 -1806 0
2 -3 1806 0
-2 3 1806 0
5 6 -1807 0
-5 -6 -1807 0
5 -6 1807 0
-5 6 1807 0
1807 7 -1808 0
-1807 -7 -1808 0
1807 -7 1808 0
-1807 7 1808 0
9 10 -1809 0
-9 -10 -1809 0
9 -10 1809 0
-9 10 1809 0
1809 12 -1810 0
-1809 -12 -1810 0
1809 -12 1810 0
-1809 12 1810 0
13 14 -1811 0
-13 -14 -1811 0
13 -14 1811 0
-13 14 1811 0
1811 16 -1812 0
-1811 -16 -1812 0
1811 -16 1812 0
-1811 16 1812 0
17 18 -1813 0
-17 -18 -1813 0
17 -18 1813 0
-17 18 1813 0
1813 19 -1814 0
-1813 -19 -1814 0
1813 -19 1814 0
-1813 19 1814 0
21 23 -1815 0
-21 -23 -1815 0
21 -23 1815 0
-21 23 1815 0
1815 24 -1816 0
-1815 -24 -1816 0
1815 -24 1816 0
-1815 24 1816 0
1806 1808 -1817 0
-1806 -1808 -1817 0
1806 -1808 1817 0
-1806 1808 1817 0
1817 1810 -1818 0
-1817 -1810 -1818 0
1817 -1810 1818 0
-1817 1810 1818 0
1806 1812 -1819 0
-1806 -1812 -1819 0
1806 -1812 1819 0
-1806 1812 1819 0
1819 1814 -1820 0
-1819 -1814 -1820 0
1819 -1814 1820 0
-1819 1814 1820 0
1808 1812 -1821 0
-1808 -1812 -1821 0
1808 -1812 1821 0
-1808 1812 1821 0
1821 1816 -1822 0
-1821 -1816 -1822 0
1821 -1816 1822 0
-1821 1816 1822 0
1810 1814 -1823 0
-1810 -1814 -1823 0
1810 -1814 1823 0
-1810 1814 1823 0
1823 1816 -1824 0
-1823 -1816 -1824 0
1823 -1816 1824 0
-1823 1816 1824 0
1818 1820 1822 1824 0
2 3 -1825 0
-2 -3 -1825 0
2 -3 1825 0
-2 3 1825 0
5 6 -1826 0
-5 -6 -1826 0
5 -6 1826 0
-5 6 1826 0
1826 8 -1827 0
-1826 -8 -1827 0
1826 -8 1827 0
-1826 8 1827 0
9 12 -1828 0
-9 -12 -1828 0
9 -12 1828 0
-9 12 1828 0
13 14 -1829 0
-13 -14 -1829 0
13 -14 1829 0
-13 14 1829 0
1829 15 -1830 0
-1829 -15 -1830 0
1829 -15 1830 0
-1829 15 1830 0
18 19 -1831 0
-18 -19 -1831 0
18 -19 1831 0
-18 19 1831 0
21 22 -1832 0
-21 -22 -1832 0
21 -22 1832 0
-21 22 1832 0
1832 24 -1833 0
-1832 -24 -1833 0
1832 -24 1833 0
-1832 24 1833 0
1825 1827 -1834 0
-1825 -1827 -1834 0
1825 -1827 1834 0
-1825 1827 1834 0
1834 1828 -1835 0
-1834 -1828 -1835 0
1834 -1828 1835 0
-1834 1828 1835 0
1825 1830 -1836 0
-1825 -1830 -1836 0
1825 -1830 1836 0
-1825 1830 1836 0
1836 1831 -1837 0
-1836 -1831 -1837 0
1836 -1831 1837 0
-1836 1831 1837 0
1827 1830 -1838 0
-1827 -1830 -1838 0
1827 -1830 1838 0
-1827 1830 1838 0
1838 1833 -1839 0
-1838 -1833 -1839 0
1838 -1833 1839 0
-1838 1833 1839 0
1828 1831 -1840 0
-1828 -1831 -1840 0
1828 -1831 1840 0
-1828 1831 1840 0
1840 1833 -1841 0
-1840 -1833 -1841 0
1840 -1833 1841 0
-1840 1833 1841 0
1835 1837 1839 1841 0
2 3 -1842 0
-2 -3 -1842 0
2 -3 1842 0
-2 3 1842 0
5 6 -1843 0
-5 -6 -1843 0
5 -6 1843 0
-5 6 1843 0
1843 8 -1844 0
-1843 -8 -1844 0
1843 -8 1844 0
-1843 8 1844 0
9 11 -1845 0
-9 -11 -1845 0
9 -11 1845 0
-9 11 1845 0
1845 12 -1846 0
-1845 -12 -1846 0
1845 -12 1846 0
-1845 12 1846 0
13 14 -1847 0
-13 -14 -1847 0
13 -14 1847 0
-13 14 1847 0
1847 15 -1848 0
-1847 -15 -1848 0
1847 -15 1848 0
-1847 15 1848 0
18 19 -1849 0
-18 -19 -1849 0
18 -19 1849 0
-18 19 1849 0
1849 20 -1850 0
-1849 -20 -1850 0
1849 -20 1850 0
-1849 20 1850 0
21 22 -1851 0
-21 -22 -1851 0
21 -22 1851 0
-21 22 1851 0
1851 23 -1852 0
-1851 -23 -1852 0
1851 -23 1852 0
-1851 23 1852 0
1842 1844 -1853 0
-1842 -1844 -1853 0
1842 -1844 1853 0
-1842 1844 1853 0
1853 1846 -1854 0
-1853 -1846 -1854 0
1853 -1846 1854 0
-1853 1846 1854 0
1842 1848 -1855 0
-1842 -1848 -1855 0
1842 -1848 1855 0
-1842 1848 1855 0
1855 1850 -1856 0
-1855 -1850 -1856 0
1855 -1850 1856 0
-1855 1850 1856 0
1844 1848 -1857 0
-1844 -1848 -1857 0
1844 -1848 1857 0
-1844 1848 1857 0
1857 1852 -1858 0
-1857 -1852 -1858 0
1857 -1852 1858 0
-1857 1852 1858 0
1846 1850 -1859 0
-1846 -1850 -1859 0
1846 -1850 1859 0
-1846 1850 1859 0
1859 1852 -1860 0
-1859 -1852 -1860 0
1859 -1852 1860 0
-1859 1852 1860 0
1854 1856 1858 1860 0
2 3 -1861 0
-2 -3 -1861 0
2 -3 1861 0
-2 3 1861 0
5 6 -1862 0
-5 -6 -1862 0
5 -6 1862 0
-5 6 1862 0
1862 8 -1863 0
-1862 -8 -1863 0
1862 -8 1863 0
-1862 8 1863 0
10 11 -1864 0
-10 -11 -1864 0
10 -11 1864 0
-10 11 1864 0
13 14 -1865 0
-13 -14 -1865 0
13 -14 1865 0
-13 14 1865 0
1865 15 -1866 0
-1865 -15 -1866 0
1865 -15 1866 0
-1865 15 1866 0
17 20 -1867 0
-17 -20 -1867 0
17 -20 1867 0
-17 20 1867 0
22 23 -1868 0
-22 -23 -1868 0
22 -23 1868 0
-22 23 1868 0
1868 24 -1869 0
-1868 -24 -1869 0
1868 -24 1869 0
-1868 24 1869 0
1861 1863 -1870 0
-1861 -1863 -1870 0
1861 -1863 1870 0
-1861 1863 1870 0
1870 1864 -1871 0
-1870 -1864 -1871 0
1870 -1864 1871 0
-1870 1864 1871 0
1861 1866 -1872 0
-1861 -1866 -1872 0
1861 -1866 1872 0
-1861 1866 1872 0
1872 1867 -1873 0
-1872 -1867 -1873 0
1872 -1867 1873 0
-1872 1867 1873 0
1863 1866 -1874 0
-1863 -1866 -1874 0
1863 -1866 1874 0
-1863 1866 1874 0
1874 1869 -1875 0
-1874 -1869 -1875 0
1874 -1869 1875 0
-1874 1869 1875 0
1864 1867 -1876 0
-1864 -1867 -1876 0
1864 -1867 1876 0
-1864 1867 1876 0
1876 1869 -1877 0
-1876 -1869 -1877 0
1876 -1869 1877 0
-1876 1869 1877 0
1871 1873 1875 1877 0
2 3 -1878 0
-2 -3 -1878 0
2 -3 1878 0
-2 3 1878 0
5 6 -1879 0
-5 -6 -1879 0
5 -6 1879 0
-5 6 1879 0
1879 8 -1880 0
-1879 -8 -1880 0
1879 -8 1880 0
-1879 8 1880 0
10 11 -1881 0
-10 -11 -1881 0
10 -11 1881 0
-10 11 1881 0
1881 12 -1882 0
-1881 -12 -1882 0
1881 -12 1882 0
-1881 12 1882 0
13 14 -1883 0
-13 -14 -1883 0
13 -14 1883 0
-13 14 1883 0
1883 15 -1884 0
-1883 -15 -1884 0
1883 -15 1884 0
-1883 15 1884 0
17 19 -1885 0
-17 -19 -1885 0
17 -19 1885 0
-17 19 1885 0
1885 20 -1886 0
-1885 -20 -1886 0
1885 -20 1886 0
-1885 20 1886 0
22 23 -1887 0
-22 -23 -1887 0
22 -23 1887 0
-22 23 1887 0
1878 1880 -1888 0
-1878 -1880 -1888 0
1878 -1880 1888 0
-1878 1880 1888 0
1888 1882 -1889 0
-1888 -1882 -1889 0
1888 -1882 1889 0
-1888 1882 1889 0
1878 1884 -1890 0
-1878 -1884 -1890 0
1878 -1884 1890 0
-1878 1884 1890 0
1890 1886 -1891 0
-1890 -1886 -1891 0
1890 -1886 1891 0
-1890 1886 1891 0
1880 1884 -1892 0
-1880 -1884 -1892 0
1880 -1884 1892 0
-1880 1884 1892 0
1892 1887 -1893 0
-1892 -1887 -1893 0
1892 -1887 1893 0
-1892 1887 1893 0
1882 1886 -1894 0
-1882 -1886 -1894 0
1882 -1886 1894 0
-1882 1886 1894 0
1894 1887 -1895 0
-1894 -1887 -1895 0
1894 -1887 1895 0
-1894 1887 1895 0
1889 1891 1893 1895 0
2 3 -1896 0
-2 -3 -1896 0
2 -3 1896 0
-2 3 1896 0
5 6 -1897 0
-5 -6 -1897 0
5 -6 1897 0
-5 6 1897 0
1897 8 -1898 0
-1897 -8 -1898 0
1897 -8 1898 0
-1897 8 1898 0
9 10 -1899 0
-9 -10 -1899 0
9 -10 1899 0
-9 10 1899 0
1899 11 -1900 0
-1899 -11 -1900 0
1899 -11 1900 0
-1899 11 1900 0
13 14 -1901 0
-13 -14 -1901 0
13 -14 1901 0
-13 14 1901 0
1901 15 -1902 0
-1901 -15 -1902 0
1901 -15 1902 0
-1901 15 1902 0
17 18 -1903 0
-17 -18 -1903 0
17 -18 1903 0
-17 18 1903 0
1903 20 -1904 0
-1903 -20 -1904 0
1903 -20 1904 0
-1903 20 1904 0
21 23 -1905 0
-21 -23 -1905 0
21 -23 1905 0
-21 23 1905 0
1905 24 -1906 0
-1905 -24 -1906 0
1905 -24 1906 0
-1905 24 1906 0
1896 1898 -1907 0
-1896 -1898 -1907 0
1896 -1898 1907 0
-1896 1898 1907 0
1907 1900 -1908 0
-1907 -1900 -1908 0
1907 -1900 1908 0
-1907 1900 1908 0
1896 1902 -1909 0
-1896 -1902 -1909 0
1896 -1902 1909 0
-1896 1902 1909 0
1909 1904 -1910 0
-1909 -1904 -1910 0
1909 -1904 1910 0
-1909 1904 1910 0
1898 1902 -1911 0
-1898 -1902 -1911 0
1898 -1902 1911 0
-1898 1902 1911 0
1911 1906 -1912 0
-1911 -1906 -1912 0
1911 -1906 1912 0
-1911 1906 1912 0
1900 1904 -1913 0
-1900 -1904 -1913 0
1900 -1904 1913 0
-1900 1904 1913 0
1913 1906 -1914 0
-1913 -1906 -1914 0
1913 -1906 1914 0
-1913 1906 1914 0
1908 1910 1912 1914 0
2 3 -1915 0
-2 -3 -1915 0
2 -3 1915 0
-2 3 1915 0
5 6 -1916 0
-5 -6 -1916 0
5 -6 1916 0
-5 6 1916 0
1916 8 -1917 0
-1916 -8 -1917 0
1916 -8 1917 0
-1916 8 1917 0
9 10 -1918 0
-9 -10 -1918 0
9 -10 1918 0
-9 10 1918 0
1918 12 -1919 0
-1918 -12 -1919 0
1918 -12 1919 0
-1918 12 1919 0
13 14 -1920 0
-13 -14 -1920 0
13 -14 1920 0
-13 14 1920 0
1920 15 -1921 0
-1920 -15 -1921 0
1920 -15 1921 0
-1920 15 1921 0
17 18 -1922 0
-17 -18 -1922 0
17 -18 1922 0
-17 18 1922 0
1922 19 -1923 0
-1922 -19 -1923 0
1922 -19 1923 0
-1922 19 1923 0
21 24 -1924 0
-21 -24 -1924 0
21 -24 1924 0
-21 24 1924 0
1915 1917 -1925 0
-1915 -1917 -1925 0
1915 -1917 1925 0
-1915 1917 1925 0
1925 1919 -1926 0
-1925 -1919 -1926 0
1925 -1919 1926 0
-1925 1919 1926 0
1915 1921 -1927 0
-1915 -1921 -1927 0
1915 -1921 1927 0
-1915 1921 1927 0
1927 1923 -1928 0
-1927 -1923 -1928 0
1927 -1923 1928 0
-1927 1923 1928 0
1917 1921 -1929 0
-1917 -1921 -1929 0
1917 -1921 1929 0
-1917 1921 1929 0
1929 1924 -1930 0
-1929 -1924 -1930 0
1929 -1924 1930 0
-1929 1924 1930 0
1919 1923 -1931 0
-1919 -1923 -1931 0
1919 -1923 1931 0
-1919 1923 1931 0
1931 1924 -1932 0
-1931 -1924 -1932 0
1931 -1924 1932 0
-1931 1924 1932 0
1926 1928 1930 1932 0
2 3 -1933 0
-2 -3 -1933 0
2 -3 1933 0
-2 3 1933 0
1933 4 -1934 0
-1933 -4 -1934 0
1933 -4 1934 0
-1933 4 1934 0
5 8 -1935 0
-5 -8 -1935 0
5 -8 1935 0
-5 8 1935 0
9 12 -1936 0
-9 -12 -1936 0
9 -12 1936 0
-9 12 1936 0
13 14 -1937 0
-13 -14 -1937 0
13 -14 1937 0
-13 14 1937 0
1937 15 -1938 0
-1937 -15 -1938 0
1937 -15 1938 0
-1937 15 1938 0
17 18 -1939 0
-17 -18 -1939 0
17 -18 1939 0
-17 18 1939 0
1939 19 -1940 0
-1939 -19 -1940 0
1939 -19 1940 0
-1939 19 1940 0
21 24 -1941 0
-21 -24 -1941 0
21 -24 1941 0
-21 24 1941 0
1934 1935 -1942 0
-1934 -1935 -1942 0
1934 -1935 1942 0
-1934 1935 1942 0
1942 1936 -1943 0
-1942 -1936 -1943 0
1942 -1936 1943 0
-1942 1936 1943 0
1934 1938 -1944 0
-1934 -1938 -1944 0
1934 -1938 1944 0
-1934 1938 1944 0
1944 1940 -1945 0
-1944 -1940 -1945 0
1944 -1940 1945 0
-1944 1940 1945 0
1935 1938 -1946 0
-1935 -1938 -1946 0
1935 -1938 1946 0
-1935 1938 1946 0
1946 1941 -1947 0
-1946 -1941 -1947 0
1946 -1941 1947 0
-1946 1941 1947 0
1936 1940 -1948 0
-1936 -1940 -1948 0
1936 -1940 1948 0
-1936 1940 1948 0
1948 1941 -1949 0
-1948 -1941 -1949 0
1948 -1941 1949 0
-1948 1941 1949 0
1943 1945 1947 1949 0
2 3 -1950 0
-2 -3 -1950 0
2 -3 1950 0
-2 3 1950 0
1950 4 -1951 0
-1950 -4 -1951 0
1950 -4 1951 0
-1950 4 1951 0
5 8 -1952 0
-5 -8 -1952 0
5 -8 1952 0
-5 8 1952 0
9 11 -1953 0
-9 -11 -1953 0
9 -11 1953 0
-9 11 1953 0
1953 12 -1954 0
-1953 -12 -1954 0
1953 -12 1954 0
-1953 12 1954 0
13 14 -1955 0
-13 -14 -1955 0
13 -14 1955 0
-13 14 1955 0
1955 15 -1956 0
-1955 -15 -1956 0
1955 -15 1956 0
-1955 15 1956 0
17 18 -1957 0
-17 -18 -1957 0
17 -18 1957 0
-17 18 1957 0
1957 20 -1958 0
-1957 -20 -1958 0
1957 -20 1958 0
-1957 20 1958 0
21 23 -1959 0
-21 -23 -1959 0
21 -23 1959 0
-21 23 1959 0
1959 24 -1960 0
-1959 -24 -1960 0
1959 -24 1960 0
-1959 24 1960 0
1951 1952 -1961 0
-1951 -1952 -1961 0
1951 -1952 1961 0
-1951 1952 1961 0
1961 1954 -1962 0
-1961 -1954 -1962 0
1961 -1954 1962 0
-1961 1954 1962 0
1951 1956 -1963 0
-1951 -1956 -1963 0
1951 -1956 1963 0
-1951 1956 1963 0
1963 1958 -1964 0
-1963 -1958 -1964 0
1963 -1958 1964 0
-1963 1958 1964 0
1952 1956 -1965 0
-1952 -1956 -1965 0
1952 -1956 1965 0
-1952 1956 1965 0
1965 1960 -1966 0
-1965 -1960 -1966 0
1965 -1960 1966 0
-1965 1960 1966 0
1954 1958 -1967 0
-1954 -1958 -1967 0
1954 -1958 1967 0
-1954 1958 1967 0
1967 1960 -1968 0
-1967 -1960 -1968 0
1967 -1960 1968 0
-1967 1960 1968 0
1962 1964 1966 1968 0
2 3 -1969 0
-2 -3 -1969 0
2 -3 1969 0
-2 3 1969 0
1969 4 -1970 0
-1969 -4 -1970 0
1969 -4 1970 0
-1969 4 1970 0
5 8 -1971 0
-5 -8 -1971 0
5 -8 1971 0
-5 8 1971 0
10 11 -1972 0
-10 -11 -1972 0
10 -11 1972 0
-10 11 1972 0
13 14 -1973 0
-13 -14 -1973 0
13 -14 1973 0
-13 14 1973 0
1973 15 -1974 0
-1973 -15 -1974 0
1973 -15 1974 0
-1973 15 1974 0
17 19 -1975 0
-17 -19 -1975 0
17 -19 1975 0
-17 19 1975 0
1975 20 -1976 0
-1975 -20 -1976 0
1975 -20 1976 0
-1975 20 1976 0
22 23 -1977 0
-22 -23 -1977 0
22 -23 1977 0
-22 23 1977 0
1970 1971 -1978 0
-1970 -1971 -1978 0
1970 -1971 1978 0
-1970 1971 1978 0
1978 1972 -1979 0
-1978 -1972 -1979 0
1978 -1972 1979 0
-1978 1972 1979 0
1970 1974 -1980 0
-1970 -1974 -1980 0
1970 -1974 1980 0
-1970 1974 1980 0
1980 1976 -1981 0
-1980 -1976 -1981 0
1980 -1976 1981 0
-1980 1976 1981 0
1971 1974 -1982 0
-1971 -1974 -1982 0
1971 -1974 1982 0
-1971 1974 1982 0
1982 1977 -1983 0
-1982 -1977 -1983 0
1982 -1977 1983 0
-1982 1977 1983 0
1972 1976 -1984 0
-1972 -1976 -1984 0
1972 -1976 1984 0
-1972 1976 1984 0
1984 1977 -1985 0
-1984 -1977 -1985 0
1984 -1977 1985 0
-1984 1977 1985 0
1979 1981 1983 1985 0
2 3 -1986 0
-2 -3 -1986 0
2 -3 1986 0
-2 3 1986 0
1986 4 -1987 0
-1986 -4 -1987 0
1986 -4 1987 0
-1986 4 1987 0
5 8 -1988 0
-5 -8 -1988 0
5 -8 1988 0
-5 8 1988 0
10 11 -1989 0
-10 -11 -1989 0
10 -11 1989 0
-10 11 1989 0
1989 12 -1990 0
-1989 -12 -1990 0
1989 -12 1990 0
-1989 12 1990 0
13 14 -1991 0
-13 -14 -1991 0
13 -14 1991 0
-13 14 1991 0
1991 15 -1992 0
-1991 -15 -1992 0
1991 -15 1992 0
-1991 15 1992 0
17 20 -1993 0
-17 -20 -1993 0
17 -20 1993 0
-17 20 1993 0
22 23 -1994 0
-22 -23 -1994 0
22 -23 1994 0
-22 23 1994 0
1994 24 -1995 0
-1994 -24 -1995 0
1994 -24 1995 0
-1994 24 1995 0
1987 1988 -1996 0
-1987 -1988 -1996 0
1987 -1988 1996 0
-1987 1988 1996 0
1996 1990 -1997 0
-1996 -1990 -1997 0
1996 -1990 1997 0
-1996 1990 1997 0
1987 1992 -1998 0
-1987 -1992 -1998 0
1987 -1992 1998 0
-1987 1992 1998 0
1998 1993 -1999 0
-1998 -1993 -1999 0
1998 -1993 1999 0
-1998 1993 1999 0
1988 1992 -2000 0
-1988 -1992 -2000 0
1988 -1992 2000 0
-1988 1992 2000 0
2000 1995 -2001 0
-2000 -1995 -2001 0
2000 -1995 2001 0
-2000 1995 2001 0
1990 1993 -2002 0
-1990 -1993 -2002 0
1990 -1993 2002 0
-1990 1993 2002 0
2002 1995 -2003 0
-2002 -1995 -2003 0
2002 -1995 2003 0
-2002 1995 2003 0
1997 1999 2001 2003 0
2 3 -2004 0
-2 -3 -2004 0
2 -3 2004 0
-2 3 2004 0
2004 4 -2005 0
-2004 -4 -2005 0
2004 -4 2005 0
-2004 4 2005 0
5 8 -2006 0
-5 -8 -2006 0
5 -8 2006 0
-5 8 2006 0
9 10 -2007 0
-9 -10 -2007 0
9 -10 2007 0
-9 10 2007 0
2007 11 -2008 0
-2007 -11 -2008 0
2007 -11 2008 0
-2007 11 2008 0
13 14 -2009 0
-13 -14 -2009 0
13 -14 2009 0
-13 14 2009 0
2009 15 -2010 0
-2009 -15 -2010 0
2009 -15 2010 0
-2009 15 2010 0
18 19 -2011 0
-18 -19 -2011 0
18 -19 2011 0
-18 19 2011 0
2011 20 -2012 0
-2011 -20 -2012 0
2011 -20 2012 0
-2011 20 2012 0
21 22 -2013 0
-21 -22 -2013 0
21 -22 2013 0
-21 22 2013 0
2013 23 -2014 0
-2013 -23 -2014 0
2013 -23 2014 0
-2013 23 2014 0
2005 2006 -2015 0
-2005 -2006 -2015 0
2005 -2006 2015 0
-2005 2006 2015 0
2015 2008 -2016 0
-2015 -2008 -2016 0
2015 -2008 2016 0
-2015 2008 2016 0
2005 2010 -2017 0
-2005 -2010 -2017 0
2005 -2010 2017 0
-2005 2010 2017 0
2017 2012 -2018 0
-2017 -2012 -2018 0
2017 -2012 2018 0
-2017 2012 2018 0
2006 2010 -2019 0
-2006 -2010 -2019 0
2006 -2010 2019 0
-2006 2010 2019 0
2019 2014 -2020 0
-2019 -2014 -2020 0
2019 -2014 2020 0
-2019 2014 2020 0
2008 2012 -2021 0
-2008 -2012 -2021 0
2008 -2012 2021 0
-2008 2012 2021 0
2021 2014 -2022 0
-2021 -2014 -2022 0
2021 -2014 2022 0
-2021 2014 2022 0
2016 2018 2020 2022 0
2 3 -2023 0
-2 -3 -2023 0
2 -3 2023 0
-2 3 2023 0
2023 4 -2024 0
-2023 -4 -2024 0
2023 -4 2024 0
-2023 4 2024 0
5 8 -2025 0
-5 -8 -2025 0
5 -8 2025 0
-5 8 2025 0
9 10 -2026 0
-9 -10 -2026 0
9 -10 2026 0
-9 10 2026 0
2026 12 -2027 0
-2026 -12 -2027 0
2026 -12 2027 0
-2026 12 2027 0
13 14 -2028 0
-13 -14 -2028 0
13 -14 2028 0
-13 14 2028 0
2028 15 -2029 0
-2028 -15 -2029 0
2028 -15 2029 0
-2028 15 2029 0
18 19 -2030 0
-18 -19 -2030 0
18 -19 2030 0
-18 19 2030 0
21 22 -2031 0
-21 -22 -2031 0
21 -22 2031 0
-21 22 2031 0
2031 24 -2032 0
-2031 -24 -2032 0
2031 -24 2032 0
-2031 24 2032 0
2024 2025 -2033 0
-2024 -2025 -2033 0
2024 -2025 2033 0
-2024 2025 2033 0
2033 2027 -2034 0
-2033 -2027 -2034 0
2033 -2027 2034 0
-2033 2027 2034 0
2024 2029 -2035 0
-2024 -2029 -2035 0
2024 -2029 2035 0
-2024 2029 2035 0
2035 2030 -2036 0
-2035 -2030 -2036 0
2035 -2030 2036 0
-2035 2030 2036 0
2025 2029 -2037 0
-2025 -2029 -2037 0
2025 -2029 2037 0
-2025 2029 2037 0
2037 2032 -2038 0
-2037 -2032 -2038 0
2037 -2032 2038 0
-2037 2032 2038 0
2027 2030 -2039 0
-2027 -2030 -2039 0
2027 -2030 2039 0
-2027 2030 2039 0
2039 2032 -2040 0
-2039 -2032 -2040 0
2039 -2032 2040 0
-2039 2032 2040 0
2034 2036 2038 2040 0
2 3 -2041 0
-2 -3 -2041 0
2 -3 2041 0
-2 3 2041 0
2041 4 -2042 0
-2041 -4 -2042 0
2041 -4 2042 0
-2041 4 2042 0
5 7 -2043 0
-5 -7 -2043 0
5 -7 2043 0
-5 7 2043 0
2043 8 -2044 0
-2043 -8 -2044 0
2043 -8 2044 0
-2043 8 2044 0
9 12 -2045 0
-9 -12 -2045 0
9 -12 2045 0
-9 12 2045 0
13 14 -2046 0
-13 -14 -2046 0
13 -14 2046 0
-13 14 2046 0
2046 16 -2047 0
-2046 -16 -2047 0
2046 -16 2047 0
-2046 16 2047 0
17 18 -2048 0
-17 -18 -2048 0
17 -18 2048 0
-17 18 2048 0
2048 19 -2049 0
-2048 -19 -2049 0
2048 -19 2049 0
-2048 19 2049 0
21 23 -2050 0
-21 -23 -2050 0
21 -23 2050 0
-21 23 2050 0
2050 24 -2051 0
-2050 -24 -2051 0
2050 -24 2051 0
-2050 24 2051 0
2042 2044 -2052 0
-2042 -2044 -2052 0
2042 -2044 2052 0
-2042 2044 2052 0
2052 2045 -2053 0
-2052 -2045 -2053 0
2052 -2045 2053 0
-2052 2045 2053 0
2042 2047 -2054 0
-2042 -2047 -2054 0
2042 -2047 2054 0
-2042 2047 2054 0
2054 2049 -2055 0
-2054 -2049 -2055 0
2054 -2049 2055 0
-2054 2049 2055 0
2044 2047 -2056 0
-2044 -2047 -2056 0
2044 -2047 2056 0
-2044 2047 2056 0
2056 2051 -2057 0
-2056 -2051 -2057 0
2056 -2051 2057 0
-2056 2051 2057 0
2045 2049 -2058 0
-2045 -2049 -2058 0
2045 -2049 2058 0
-2045 2049 2058 0
2058 2051 -2059 0
-2058 -2051 -2059 0
2058 -2051 2059 0
-2058 2051 2059 0
2053 2055 2057 2059 0
2 3 -2060 0
-2 -3 -2060 0
2 -3 2060 0
-2 3 2060 0
2060 4 -2061 0
-2060 -4 -2061 0
2060 -4 2061 0
-2060 4 2061 0
5 7 -2062 0
-5 -7 -2062 0
5 -7 2062 0
-5 7 2062 0
2062 8 -2063 0
-2062 -8 -2063 0
2062 -8 2063 0
-2062 8 2063 0
9 11 -2064 0
-9 -11 -2064 0
9 -11 2064 0
-9 11 2064 0
2064 12 -2065 0
-2064 -12 -2065 0
2064 -12 2065 0
-2064 12 2065 0
13 14 -2066 0
-13 -14 -2066 0
13 -14 2066 0
-13 14 2066 0
2066 16 -2067 0
-2066 -16 -2067 0
2066 -16 2067 0
-2066 16 2067 0
17 18 -2068 0
-17 -18 -2068 0
17 -18 2068 0
-17 18 2068 0
2068 20 -2069 0
-2068 -20 -2069 0
2068 -20 2069 0
-2068 20 2069 0
21 24 -2070 0
-21 -24 -2070 0
21 -24 2070 0
-21 24 2070 0
2061 2063 -2071 0
-2061 -2063 -2071 0
2061 -2063 2071 0
-2061 2063 2071 0
2071 2065 -2072 0
-2071 -2065 -2072 0
2071 -2065 2072 0
-2071 2065 2072 0
2061 2067 -2073 0
-2061 -2067 -2073 0
2061 -2067 2073 0
-2061 2067 2073 0
2073 2069 -2074 0
-2073 -2069 -2074 0
2073 -2069 2074 0
-2073 2069 2074 0
2063 2067 -2075 0
-2063 -2067 -2075 0
2063 -2067 2075 0
-2063 2067 2075 0
2075 2070 -2076 0
-2075 -2070 -2076 0
2075 -2070 2076 0
-2075 2070 2076 0
2065 2069 -2077 0
-2065 -2069 -2077 0
2065 -2069 2077 0
-2065 2069 2077 0
2077 2070 -2078 0
-2077 -2070 -2078 0
2077 -2070 2078 0
-2077 2070 2078 0
2072 2074 2076 2078 0
2 3 -2079 0
-2 -3 -2079 0
2 -3 2079 0
-2 3 2079 0
2079 4 -2080 0
-2079 -4 -2080 0
2079 -4 2080 0
-2079 4 2080 0
5 7 -2081 0
-5 -7 -2081 0
5 -7 2081 0
-5 7 2081 0
2081 8 -2082 0
-2081 -8 -2082 0
2081 -8 2082 0
-2081 8 2082 0
10 11 -2083 0
-10 -11 -2083 0
10 -11 2083 0
-10 11 2083 0
13 14 -2084 0
-13 -14 -2084 0
13 -14 2084 0
-13 14 2084 0
2084 16 -2085 0
-2084 -16 -2085 0
2084 -16 2085 0
-2084 16 2085 0
17 19 -2086 0
-17 -19 -2086 0
17 -19 2086 0
-17 19 2086 0
2086 20 -2087 0
-2086 -20 -2087 0
2086 -20 2087 0
-2086 20 2087 0
21 22 -2088 0
-21 -22 -2088 0
21 -22 2088 0
-21 22 2088 0
2088 23 -2089 0
-2088 -23 -2089 0
2088 -23 2089 0
-2088 23 2089 0
2080 2082 -2090 0
-2080 -2082 -2090 0
2080 -2082 2090 0
-2080 2082 2090 0
2090 2083 -2091 0
-2090 -2083 -2091 0
2090 -2083 2091 0
-2090 2083 2091 0
2080 2085 -2092 0
-2080 -2085 -2092 0
2080 -2085 2092 0
-2080 2085 2092 0
2092 2087 -2093 0
-2092 -2087 -2093 0
2092 -2087 2093 0
-2092 2087 2093 0
2082 2085 -2094 0
-2082 -2085 -2094 0
2082 -2085 2094 0
-2082 2085 2094 0
2094 2089 -2095 0
-2094 -2089 -2095 0
2094 -2089 2095 0
-2094 2089 2095 0
2083 2087 -2096 0
-2083 -2087 -2096 0
2083 -2087 2096 0
-2083 2087 2096 0
2096 2089 -2097 0
-2096 -2089 -2097 0
2096 -2089 2097 0
-2096 2089 2097 0
2091 2093 2095 2097 0
2 3 -2098 0
-2 -3 -2098 0
2 -3 2098 0
-2 3 2098 0
2098 4 -2099 0
-2098 -4 -2099 0
2098 -4 2099 0
-2098 4 2099 0
5 7 -2100 0
-5 -7 -2100 0
5 -7 2100 0
-5 7 2100 0
2100 8 -2101 0
-2100 -8 -2101 0
2100 -8 2101 0
-2100 8 2101 0
10 11 -2102 0
-10 -11 -2102 0
10 -11 2102 0
-10 11 2102 0
2102 12 -2103 0
-2102 -12 -2103 0
2102 -12 2103 0
-2102 12 2103 0
13 14 -2104 0
-13 -14 -2104 0
13 -14 2104 0
-13 14 2104 0
2104 16 -2105 0
-2104 -16 -2105 0
2104 -16 2105 0
-2104 16 2105 0
17 20 -2106 0
-17 -20 -2106 0
17 -20 2106 0
-17 20 2106 0
21 22 -2107 0
-21 -22 -2107 0
21 -22 2107 0
-21 22 2107 0
2107 24 -2108 0
-2107 -24 -2108 0
2107 -24 2108 0
-2107 24 2108 0
2099 2101 -2109 0
-2099 -2101 -2109 0
2099 -2101 2109 0
-2099 2101 2109 0
2109 2103 -2110 0
-2109 -2103 -2110 0
2109 -2103 2110 0
-2109 2103 2110 0
2099 2105 -2111 0
-2099 -2105 -2111 0
2099 -2105 2111 0
-2099 2105 2111 0
2111 2106 -2112 0
-2111 -2106 -2112 0
2111 -2106 2112 0
-2111 2106 2112 0
2101 2105 -2113 0
-2101 -2105 -2113 0
2101 -2105 2113 0
-2101 2105 2113 0
2113 2108 -2114 0
-2113 -2108 -2114 0
2113 -2108 2114 0
-2113 2108 2114 0
2103 2106 -2115 0
-2103 -2106 -2115 0
2103 -2106 2115 0
-2103 2106 2115 0
2115 2108 -2116 0
-2115 -2108 -2116 0
2115 -2108 2116 0
-2115 2108 2116 0
2110 2112 2114 2116 0
2 3 -2117 0
-2 -3 -2117 0
2 -3 2117 0
-2 3 2117 0
2117 4 -2118 0
-2117 -4 -2118 0
2117 -4 2118 0
-2117 4 2118 0
5 7 -2119 0
-5 -7 -2119 0
5 -7 2119 0
-5 7 2119 0
2119 8 -2120 0
-2119 -8 -2120 0
2119 -8 2120 0
-2119 8 2120 0
9 10 -2121 0
-9 -10 -2121 0
9 -10 2121 0
-9 10 2121 0
2121 11 -2122 0
-2121 -11 -2122 0
2121 -11 2122 0
-2121 11 2122 0
13 14 -2123 0
-13 -14 -2123 0
13 -14 2123 0
-13 14 2123 0
2123 16 -2124 0
-2123 -16 -2124 0
2123 -16 2124 0
-2123 16 2124 0
18 19 -2125 0
-18 -19 -2125 0
18 -19 2125 0
-18 19 2125 0
2125 20 -2126 0
-2125 -20 -2126 0
2125 -20 2126 0
-2125 20 2126 0
22 23 -2127 0
-22 -23 -2127 0
22 -23 2127 0
-22 23 2127 0
2118 2120 -2128 0
-2118 -2120 -2128 0
2118 -2120 2128 0
-2118 2120 2128 0
2128 2122 -2129 0
-2128 -2122 -2129 0
2128 -2122 2129 0
-2128 2122 2129 0
2118 2124 -2130 0
-2118 -2124 -2130 0
2118 -2124 2130 0
-2118 2124 2130 0
2130 2126 -2131 0
-2130 -2126 -2131 0
2130 -2126 2131 0
-2130 2126 2131 0
2120 2124 -2132 0
-2120 -2124 -2132 0
2120 -2124 2132 0
-2120 2124 2132 0
2132 2127 -2133 0
-2132 -2127 -2133 0
2132 -2127 2133 0
-2132 2127 2133 0
2122 2126 -2134 0
-2122 -2126 -2134 0
2122 -2126 2134 0
-2122 2126 2134 0
2134 2127 -2135 0
-2134 -2127 -2135 0
2134 -2127 2135 0
-2134 2127 2135 0
2129 2131 2133 2135 0
2 3 -2136 0
-2 -3 -2136 0
2 -3 2136 0
-2 3 2136 0
2136 4 -2137 0
-2136 -4 -2137 0
2136 -4 2137 0
-2136 4 2137 0
5 7 -2138 0
-5 -7 -2138 0
5 -7 2138 0
-5 7 2138 0
2138 8 -2139 0
-2138 -8 -2139 0
2138 -8 2139 0
-2138 8 2139 0
9 10 -2140 0
-9 -10 -2140 0
9 -10 2140 0
-9 10 2140 0
2140 12 -2141 0
-2140 -12 -2141 0
2140 -12 2141 0
-2140 12 2141 0
13 14 -2142 0
-13 -14 -2142 0
13 -14 2142 0
-13 14 2142 0
2142 16 -2143 0
-2142 -16 -2143 0
2142 -16 2143 0
-2142 16 2143 0
18 19 -2144 0
-18 -19 -2144 0
18 -19 2144 0
-18 19 2144 0
22 23 -2145 0
-22 -23 -2145 0
22 -23 2145 0
-22 23 2145 0
2145 24 -2146 0
-2145 -24 -2146 0
2145 -24 2146 0
-2145 24 2146 0
2137 2139 -2147 0
-2137 -2139 -2147 0
2137 -2139 2147 0
-2137 2139 2147 0
2147 2141 -2148 0
-2147 -2141 -2148 0
2147 -2141 2148 0
-2147 2141 2148 0
2137 2143 -2149 0
-2137 -2143 -2149 0
2137 -2143 2149 0
-2137 2143 2149 0
2149 2144 -2150 0
-2149 -2144 -2150 0
2149 -2144 2150 0
-2149 2144 2150 0
2139 2143 -2151 0
-2139 -2143 -2151 0
2139 -2143 2151 0
-2139 2143 2151 0
2151 2146 -2152 0
-2151 -2146 -2152 0
2151 -2146 2152 0
-2151 2146 2152 0
2141 2144 -2153 0
-2141 -2144 -2153 0
2141 -2144 2153 0
-2141 2144 2153 0
2153 2146 -2154 0
-2153 -2146 -2154 0
2153 -2146 2154 0
-2153 2146 2154 0
2148 2150 2152 2154 0
2 3 -2155 0
-2 -3 -2155 0
2 -3 2155 0
-2 3 2155 0
2155 4 -2156 0
-2155 -4 -2156 0
2155 -4 2156 0
-2155 4 2156 0
6 7 -2157 0
-6 -7 -2157 0
6 -7 2157 0
-6 7 2157 0
9 12 -2158 0
-9 -12 -2158 0
9 -12 2158 0
-9 12 2158 0
13 15 -2159 0
-13 -15 -2159 0
13 -15 2159 0
-13 15 2159 0
2159 16 -2160 0
-2159 -16 -2160 0
2159 -16 2160 0
-2159 16 2160 0
17 18 -2161 0
-17 -18 -2161 0
17 -18 2161 0
-17 18 2161 0
2161 19 -2162 0
-2161 -19 -2162 0
2161 -19 2162 0
-2161 19 2162 0
22 23 -2163 0
-22 -23 -2163 0
22 -23 2163 0
-22 23 2163 0
2156 2157 -2164 0
-2156 -2157 -2164 0
2156 -2157 2164 0
-2156 2157 2164 0
2164 2158 -2165 0
-2164 -2158 -2165 0
2164 -2158 2165 0
-2164 2158 2165 0
2156 2160 -2166 0
-2156 -2160 -2166 0
2156 -2160 2166 0
-2156 2160 2166 0
2166 2162 -2167 0
-2166 -2162 -2167 0
2166 -2162 2167 0
-2166 2162 2167 0
2157 2160 -2168 0
-2157 -2160 -2168 0
2157 -2160 2168 0
-2157 2160 2168 0
2168 2163 -2169 0
-2168 -2163 -2169 0
2168 -2163 2169 0
-2168 2163 2169 0
2158 2162 -2170 0
-2158 -2162 -2170 0
2158 -2162 2170 0
-2158 2162 2170 0
2170 2163 -2171 0
-2170 -2163 -2171 0
2170 -2163 2171 0
-2170 2163 2171 0
2165 2167 2169 2171 0
2 3 -2172 0
-2 -3 -2172 0
2 -3 2172 0
-2 3 2172 0
2172 4 -2173 0
-2172 -4 -2173 0
2172 -4 2173 0
-2172 4 2173 0
6 7 -2174 0
-6 -7 -2174 0
6 -7 2174 0
-6 7 2174 0
9 11 -2175 0
-9 -11 -2175 0
9 -11 2175 0
-9 11 2175 0
2175 12 -2176 0
-2175 -12 -2176 0
2175 -12 2176 0
-2175 12 2176 0
13 15 -2177 0
-13 -15 -2177 0
13 -15 2177 0
-13 15 2177 0
2177 16 -2178 0
-2177 -16 -2178 0
2177 -16 2178 0
-2177 16 2178 0
17 18 -2179 0
-17 -18 -2179 0
17 -18 2179 0
-17 18 2179 0
2179 20 -2180 0
-2179 -20 -2180 0
2179 -20 2180 0
-2179 20 2180 0
22 23 -2181 0
-22 -23 -2181 0
22 -23 2181 0
-22 23 2181 0
2181 24 -2182 0
-2181 -24 -2182 0
2181 -24 2182 0
-2181 24 2182 0
2173 2174 -2183 0
-2173 -2174 -2183 0
2173 -2174 2183 0
-2173 2174 2183 0
2183 2176 -2184 0
-2183 -2176 -2184 0
2183 -2176 2184 0
-2183 2176 2184 0
2173 2178 -2185 0
-2173 -2178 -2185 0
2173 -2178 2185 0
-2173 2178 2185 0
2185 2180 -2186 0
-2185 -2180 -2186 0
2185 -2180 2186 0
-2185 2180 2186 0
2174 2178 -2187 0
-2174 -2178 -2187 0
2174 -2178 2187 0
-2174 2178 2187 0
2187 2182 -2188 0
-2187 -2182 -2188 0
2187 -2182 2188 0
-2187 2182 2188 0
2176 2180 -2189 0
-2176 -2180 -2189 0
2176 -2180 2189 0
-2176 2180 2189 0
2189 2182 -2190 0
-2189 -2182 -2190 0
2189 -2182 2190 0
-2189 2182 2190 0
2184 2186 2188 2190 0
2 3 -2191 0
-2 -3 -2191 0
2 -3 2191 0
-2 3 2191 0
2191 4 -2192 0
-2191 -4 -2192 0
2191 -4 2192 0
-2191 4 2192 0
6 7 -2193 0
-6 -7 -2193 0
6 -7 2193 0
-6 7 2193 0
10 11 -2194 0
-10 -11 -2194 0
10 -11 2194 0
-10 11 2194 0
13 15 -2195 0
-13 -15 -2195 0
13 -15 2195 0
-13 15 2195 0
2195 16 -2196 0
-2195 -16 -2196 0
2195 -16 2196 0
-2195 16 2196 0
17 19 -2197 0
-17 -19 -2197 0
17 -19 2197 0
-17 19 2197 0
2197 20 -2198 0
-2197 -20 -2198 0
2197 -20 2198 0
-2197 20 2198 0
21 24 -2199 0
-21 -24 -2199 0
21 -24 2199 0
-21 24 2199 0
2192 2193 -2200 0
-2192 -2193 -2200 0
2192 -2193 2200 0
-2192 2193 2200 0
2200 2194 -2201 0
-2200 -2194 -2201 0
2200 -2194 2201 0
-2200 2194 2201 0
2192 2196 -2202 0
-2192 -2196 -2202 0
2192 -2196 2202 0
-2192 2196 2202 0
2202 2198 -2203 0
-2202 -2198 -2203 0
2202 -2198 2203 0
-2202 2198 2203 0
2193 2196 -2204 0
-2193 -2196 -2204 0
2193 -2196 2204 0
-2193 2196 2204 0
2204 2199 -2205 0
-2204 -2199 -2205 0
2204 -2199 2205 0
-2204 2199 2205 0
2194 2198 -2206 0
-2194 -2198 -2206 0
2194 -2198 2206 0
-2194 2198 2206 0
2206 2199 -2207 0
-2206 -2199 -2207 0
2206 -2199 2207 0
-2206 2199 2207 0
2201 2203 2205 2207 0
2 3 -2208 0
-2 -3 -2208 0
2 -3 2208 0
-2 3 2208 0
2208 4 -2209 0
-2208 -4 -2209 0
2208 -4 2209 0
-2208 4 2209 0
6 7 -2210 0
-6 -7 -2210 0
6 -7 2210 0
-6 7 2210 0
10 11 -2211 0
-10 -11 -2211 0
10 -11 2211 0
-10 11 2211 0
2211 12 -2212 0
-2211 -12 -2212 0
2211 -12 2212 0
-2211 12 2212 0
13 15 -2213 0
-13 -15 -2213 0
13 -15 2213 0
-13 15 2213 0
2213 16 -2214 0
-2213 -16 -2214 0
2213 -16 2214 0
-2213 16 2214 0
17 20 -2215 0
-17 -20 -2215 0
17 -20 2215 0
-17 20 2215 0
21 23 -2216 0
-21 -23 -2216 0
21 -23 2216 0
-21 23 2216 0
2216 24 -2217 0
-2216 -24 -2217 0
2216 -24 2217 0
-2216 24 2217 0
2209 2210 -2218 0
-2209 -2210 -2218 0
2209 -2210 2218 0
-2209 2210 2218 0
2218 2212 -2219 0
-2218 -2212 -2219 0
2218 -2212 2219 0
-2218 2212 2219 0
2209 2214 -2220 0
-2209 -2214 -2220 0
2209 -2214 2220 0
-2209 2214 2220 0
2220 2215 -2221 0
-2220 -2215 -2221 0
2220 -2215 2221 0
-2220 2215 2221 0
2210 2214 -2222 0
-2210 -2214 -2222 0
2210 -2214 2222 0
-2210 2214 2222 0
2222 2217 -2223 0
-2222 -2217 -2223 0
2222 -2217 2223 0
-2222 2217 2223 0
2212 2215 -2224 0
-2212 -2215 -2224 0
2212 -2215 2224 0
-2212 2215 2224 0
2224 2217 -2225 0
-2224 -2217 -2225 0
2224 -2217 2225 0
-2224 2217 2225 0
2219 2221 2223 2225 0
2 3 -2226 0
-2 -3 -2226 0
2 -3 2226 0
-2 3 2226 0
2226 4 -2227 0
-2226 -4 -2227 0
2226 -4 2227 0
-2226 4 2227 0
6 7 -2228 0
-6 -7 -2228 0
6 -7 2228 0
-6 7 2228 0
9 10 -2229 0
-9 -10 -2229 0
9 -10 2229 0
-9 10 2229 0
2229 11 -2230 0
-2229 -11 -2230 0
2229 -11 2230 0
-2229 11 2230 0
13 15 -2231 0
-13 -15 -2231 0
13 -15 2231 0
-13 15 2231 0
2231 16 -2232 0
-2231 -16 -2232 0
2231 -16 2232 0
-2231 16 2232 0
18 19 -2233 0
-18 -19 -2233 0
18 -19 2233 0
-18 19 2233 0
2233 20 -2234 0
-2233 -20 -2234 0
2233 -20 2234 0
-2233 20 2234 0
21 22 -2235 0
-21 -22 -2235 0
21 -22 2235 0
-21 22 2235 0
2235 24 -2236 0
-2235 -24 -2236 0
2235 -24 2236 0
-2235 24 2236 0
2227 2228 -2237 0
-2227 -2228 -2237 0
2227 -2228 2237 0
-2227 2228 2237 0
2237 2230 -2238 0
-2237 -2230 -2238 0
2237 -2230 2238 0
-2237 2230 2238 0
2227 2232 -2239 0
-2227 -2232 -2239 0
2227 -2232 2239 0
-2227 2232 2239 0
2239 2234 -2240 0
-2239 -2234 -2240 0
2239 -2234 2240 0
-2239 2234 2240 0
2228 2232 -2241 0
-2228 -2232 -2241 0
2228 -2232 2241 0
-2228 2232 2241 0
2241 2236 -2242 0
-2241 -2236 -2242 0
2241 -2236 2242 0
-2241 2236 2242 0
2230 2234 -2243 0
-2230 -2234 -2243 0
2230 -2234 2243 0
-2230 2234 2243 0
2243 2236 -2244 0
-2243 -2236 -2244 0
2243 -2236 2244 0
-2243 2236 2244 0
2238 2240 2242 2244 0
2 3 -2245 0
-2 -3 -2245 0
2 -3 2245 0
-2 3 2245 0
2245 4 -2246 0
-2245 -4 -2246 0
2245 -4 2246 0
-2245 4 2246 0
6 7 -2247 0
-6 -7 -2247 0
6 -7 2247 0
-6 7 2247 0
9 10 -2248 0
-9 -10 -2248 0
9 -10 2248 0
-9 10 2248 0
2248 12 -2249 0
-2248 -12 -2249 0
2248 -12 2249 0
-2248 12 2249 0
13 15 -2250 0
-13 -15 -2250 0
13 -15 2250 0
-13 15 2250 0
2250 16 -2251 0
-2250 -16 -2251 0
2250 -16 2251 0
-2250 16 2251 0
18 19 -2252 0
-18 -19 -2252 0
18 -19 2252 0
-18 19 2252 0
21 22 -2253 0
-21 -22 -2253 0
21 -22 2253 0
-21 22 2253 0
2253 23 -2254 0
-2253 -23 -2254 0
2253 -23 2254 0
-2253 23 2254 0
2246 2247 -2255 0
-2246 -2247 -2255 0
2246 -2247 2255 0
-2246 2247 2255 0
2255 2249 -2256 0
-2255 -2249 -2256 0
2255 -2249 2256 0
-2255 2249 2256 0
2246 2251 -2257 0
-2246 -2251 -2257 0
2246 -2251 2257 0
-2246 2251 2257 0
2257 2252 -2258 0
-2257 -2252 -2258 0
2257 -2252 2258 0
-2257 2252 2258 0
2247 2251 -2259 0
-2247 -2251 -2259 0
2247 -2251 2259 0
-2247 2251 2259 0
2259 2254 -2260 0
-2259 -2254 -2260 0
2259 -2254 2260 0
-2259 2254 2260 0
2249 2252 -2261 0
-2249 -2252 -2261 0
2249 -2252 2261 0
-2249 2252 2261 0
2261 2254 -2262 0
-2261 -2254 -2262 0
2261 -2254 2262 0
-2261 2254 2262 0
2256 2258 2260 2262 0
2 3 -2263 0
-2 -3 -2263 0
2 -3 2263 0
-2 3 2263 0
2263 4 -2264 0
-2263 -4 -2264 0
2263 -4 2264 0
-2263 4 2264 0
6 7 -2265 0
-6 -7 -2265 0
6 -7 2265 0
-6 7 2265 0
2265 8 -2266 0
-2265 -8 -2266 0
2265 -8 2266 0
-2265 8 2266 0
9 12 -2267 0
-9 -12 -2267 0
9 -12 2267 0
-9 12 2267 0
13 16 -2268 0
-13 -16 -2268 0
13 -16 2268 0
-13 16 2268 0
17 18 -2269 0
-17 -18 -2269 0
17 -18 2269 0
-17 18 2269 0
2269 19 -2270 0
-2269 -19 -2270 0
2269 -19 2270 0
-2269 19 2270 0
21 22 -2271 0
-21 -22 -2271 0
21 -22 2271 0
-21 22 2271 0
2271 23 -2272 0
-2271 -23 -2272 0
2271 -23 2272 0
-2271 23 2272 0
2264 2266 -2273 0
-2264 -2266 -2273 0
2264 -2266 2273 0
-2264 2266 2273 0
2273 2267 -2274 0
-2273 -2267 -2274 0
2273 -2267 2274 0
-2273 2267 2274 0
2264 2268 -2275 0
-2264 -2268 -2275 0
2264 -2268 2275 0
-2264 2268 2275 0
2275 2270 -2276 0
-2275 -2270 -2276 0
2275 -2270 2276 0
-2275 2270 2276 0
2266 2268 -2277 0
-2266 -2268 -2277 0
2266 -2268 2277 0
-2266 2268 2277 0
2277 2272 -2278 0
-2277 -2272 -2278 0
2277 -2272 2278 0
-2277 2272 2278 0
2267 2270 -2279 0
-2267 -2270 -2279 0
2267 -2270 2279 0
-2267 2270 2279 0
2279 2272 -2280 0
-2279 -2272 -2280 0
2279 -2272 2280 0
-2279 2272 2280 0
2274 2276 2278 2280 0
2 3 -2281 0
-2 -3 -2281 0
2 -3 2281 0
-2 3 2281 0
2281 4 -2282 0
-2281 -4 -2282 0
2281 -4 2282 0
-2281 4 2282 0
6 7 -2283 0
-6 -7 -2283 0
6 -7 2283 0
-6 7 2283 0
2283 8 -2284 0
-2283 -8 -2284 0
2283 -8 2284 0
-2283 8 2284 0
9 11 -2285 0
-9 -11 -2285 0
9 -11 2285 0
-9 11 2285 0
2285 12 -2286 0
-2285 -12 -2286 0
2285 -12 2286 0
-2285 12 2286 0
13 16 -2287 0
-13 -16 -2287 0
13 -16 2287 0
-13 16 2287 0
17 18 -2288 0
-17 -18 -2288 0
17 -18 2288 0
-17 18 2288 0
2288 20 -2289 0
-2288 -20 -2289 0
2288 -20 2289 0
-2288 20 2289 0
21 22 -2290 0
-21 -22 -2290 0
21 -22 2290 0
-21 22 2290 0
2290 24 -2291 0
-2290 -24 -2291 0
2290 -24 2291 0
-2290 24 2291 0
2282 2284 -2292 0
-2282 -2284 -2292 0
2282 -2284 2292 0
-2282 2284 2292 0
2292 2286 -2293 0
-2292 -2286 -2293 0
2292 -2286 2293 0
-2292 2286 2293 0
2282 2287 -2294 0
-2282 -2287 -2294 0
2282 -2287 2294 0
-2282 2287 2294 0
2294 2289 -2295 0
-2294 -2289 -2295 0
2294 -2289 2295 0
-2294 2289 2295 0
2284 2287 -2296 0
-2284 -2287 -2296 0
2284 -2287 2296 0
-2284 2287 2296 0
2296 2291 -2297 0
-2296 -2291 -2297 0
2296 -2291 2297 0
-2296 2291 2297 0
2286 2289 -2298 0
-2286 -2289 -2298 0
2286 -2289 2298 0
-2286 2289 2298 0
2298 2291 -2299 0
-2298 -2291 -2299 0
2298 -2291 2299 0
-2298 2291 2299 0
2293 2295 2297 2299 0
2 3 -2300 0
-2 -3 -2300 0
2 -3 2300 0
-2 3 2300 0
2300 4 -2301 0
-2300 -4 -2301 0
2300 -4 2301 0
-2300 4 2301 0
6 7 -2302 0
-6 -7 -2302 0
6 -7 2302 0
-6 7 2302 0
2302 8 -2303 0
-2302 -8 -2303 0
2302 -8 2303 0
-2302 8 2303 0
10 11 -2304 0
-10 -11 -2304 0
10 -11 2304 0
-10 11 2304 0
13 16 -2305 0
-13 -16 -2305 0
13 -16 2305 0
-13 16 2305 0
17 19 -2306 0
-17 -19 -2306 0
17 -19 2306 0
-17 19 2306 0
2306 20 -2307 0
-2306 -20 -2307 0
2306 -20 2307 0
-2306 20 2307 0
21 23 -2308 0
-21 -23 -2308 0
21 -23 2308 0
-21 23 2308 0
2308 24 -2309 0
-2308 -24 -2309 0
2308 -24 2309 0
-2308 24 2309 0
2301 2303 -2310 0
-2301 -2303 -2310 0
2301 -2303 2310 0
-2301 2303 2310 0
2310 2304 -2311 0
-2310 -2304 -2311 0
2310 -2304 2311 0
-2310 2304 2311 0
2301 2305 -2312 0
-2301 -2305 -2312 0
2301 -2305 2312 0
-2301 2305 2312 0
2312 2307 -2313 0
-2312 -2307 -2313 0
2312 -2307 2313 0
-2312 2307 2313 0
2303 2305 -2314 0
-2303 -2305 -2314 0
2303 -2305 2314 0
-2303 2305 2314 0
2314 2309 -2315 0
-2314 -2309 -2315 0
2314 -2309 2315 0
-2314 2309 2315 0
2304 2307 -2316 0
-2304 -2307 -2316 0
2304 -2307 2316 0
-2304 2307 2316 0
2316 2309 -2317 0
-2316 -2309 -2317 0
2316 -2309 2317 0
-2316 2309 2317 0
2311 2313 2315 2317 0
2 3 -2318 0
-2 -3 -2318 0
2 -3 2318 0
-2 3 2318 0
2318 4 -2319 0
-2318 -4 -2319 0
2318 -4 2319 0
-2318 4 2319 0
6 7 -2320 0
-6 -7 -2320 0
6 -7 2320 0
-6 7 2320 0
2320 8 -2321 0
-2320 -8 -2321 0
2320 -8 2321 0
-2320 8 2321 0
10 11 -2322 0
-10 -11 -2322 0
10 -11 2322 0
-10 11 2322 0
2322 12 -2323 0
-2322 -12 -2323 0
2322 -12 2323 0
-2322 12 2323 0
13 16 -2324 0
-13 -16 -2324 0
13 -16 2324 0
-13 16 2324 0
17 20 -2325 0
-17 -20 -2325 0
17 -20 2325 0
-17 20 2325 0
21 24 -2326 0
-21 -24 -2326 0
21 -24 2326 0
-21 24 2326 0
2319 2321 -2327 0
-2319 -2321 -2327 0
2319 -2321 2327 0
-2319 2321 2327 0
2327 2323 -2328 0
-2327 -2323 -2328 0
2327 -2323 2328 0
-2327 2323 2328 0
2319 2324 -2329 0
-2319 -2324 -2329 0
2319 -2324 2329 0
-2319 2324 2329 0
2329 2325 -2330 0
-2329 -2325 -2330 0
2329 -2325 2330 0
-2329 2325 2330 0
2321 2324 -2331 0
-2321 -2324 -2331 0
2321 -2324 2331 0
-2321 2324 2331 0
2331 2326 -2332 0
-2331 -2326 -2332 0
2331 -2326 2332 0
-2331 2326 2332 0
2323 2325 -2333 0
-2323 -2325 -2333 0
2323 -2325 2333 0
-2323 2325 2333 0
2333 2326 -2334 0
-2333 -2326 -2334 0
2333 -2326 2334 0
-2333 2326 2334 0
2328 2330 2332 2334 0
2 3 -2335 0
-2 -3 -2335 0
2 -3 2335 0
-2 3 2335 0
2335 4 -2336 0
-2335 -4 -2336 0
2335 -4 2336 0
-2335 4 2336 0
6 7 -2337 0
-6 -7 -2337 0
6 -7 2337 0
-6 7 2337 0
2337 8 -2338 0
-2337 -8 -2338 0
2337 -8 2338 0
-2337 8 2338 0
9 10 -2339 0
-9 -10 -2339 0
9 -10 2339 0
-9 10 2339 0
2339 11 -2340 0
-2339 -11 -2340 0
2339 -11 2340 0
-2339 11 2340 0
13 16 -2341 0
-13 -16 -2341 0
13 -16 2341 0
-13 16 2341 0
18 19 -2342 0
-18 -19 -2342 0
18 -19 2342 0
-18 19 2342 0
2342 20 -2343 0
-2342 -20 -2343 0
2342 -20 2343 0
-2342 20 2343 0
22 23 -2344 0
-22 -23 -2344 0
22 -23 2344 0
-22 23 2344 0
2344 24 -2345 0
-2344 -24 -2345 0
2344 -24 2345 0
-2344 24 2345 0
2336 2338 -2346 0
-2336 -2338 -2346 0
2336 -2338 2346 0
-2336 2338 2346 0
2346 2340 -2347 0
-2346 -2340 -2347 0
2346 -2340 2347 0
-2346 2340 2347 0
2336 2341 -2348 0
-2336 -2341 -2348 0
2336 -2341 2348 0
-2336 2341 2348 0
2348 2343 -2349 0
-2348 -2343 -2349 0
2348 -2343 2349 0
-2348 2343 2349 0
2338 2341 -2350 0
-2338 -2341 -2350 0
2338 -2341 2350 0
-2338 2341 2350 0
2350 2345 -2351 0
-2350 -2345 -2351 0
2350 -2345 2351 0
-2350 2345 2351 0
2340 2343 -2352 0
-2340 -2343 -2352 0
2340 -2343 2352 0
-2340 2343 2352 0
2352 2345 -2353 0
-2352 -2345 -2353 0
2352 -2345 2353 0
-2352 2345 2353 0
2347 2349 2351 2353 0
2 3 -2354 0
-2 -3 -2354 0
2 -3 2354 0
-2 3 2354 0
2354 4 -2355 0
-2354 -4 -2355 0
2354 -4 2355 0
-2354 4 2355 0
6 7 -2356 0
-6 -7 -2356 0
6 -7 2356 0
-6 7 2356 0
2356 8 -2357 0
-2356 -8 -2357 0
2356 -8 2357 0
-2356 8 2357 0
9 10 -2358 0
-9 -10 -2358 0
9 -10 2358 0
-9 10 2358 0
2358 12 -2359 0
-2358 -12 -2359 0
2358 -12 2359 0
-2358 12 2359 0
13 16 -2360 0
-13 -16 -2360 0
13 -16 2360 0
-13 16 2360 0
18 19 -2361 0
-18 -19 -2361 0
18 -19 2361 0
-18 19 2361 0
22 23 -2362 0
-22 -23 -2362 0
22 -23 2362 0
-22 23 2362 0
2355 2357 -2363 0
-2355 -2357 -2363 0
2355 -2357 2363 0
-2355 2357 2363 0
2363 2359 -2364 0
-2363 -2359 -2364 0
2363 -2359 2364 0
-2363 2359 2364 0
2355 2360 -2365 0
-2355 -2360 -2365 0
2355 -2360 2365 0
-2355 2360 2365 0
2365 2361 -2366 0
-2365 -2361 -2366 0
2365 -2361 2366 0
-2365 2361 2366 0
2357 2360 -2367 0
-2357 -2360 -2367 0
2357 -2360 2367 0
-2357 2360 2367 0
2367 2362 -2368 0
-2367 -2362 -2368 0
2367 -2362 2368 0
-2367 2362 2368 0
2359 2361 -2369 0
-2359 -2361 -2369 0
2359 -2361 2369 0
-2359 2361 2369 0
2369 2362 -2370 0
-2369 -2362 -2370 0
2369 -2362 2370 0
-2369 2362 2370 0
2364 2366 2368 2370 0
2 3 -2371 0
-2 -3 -2371 0
2 -3 2371 0
-2 3 2371 0
2371 4 -2372 0
-2371 -4 -2372 0
2371 -4 2372 0
-2371 4 2372 0
5 6 -2373 0
-5 -6 -2373 0
5 -6 2373 0
-5 6 2373 0
2373 7 -2374 0
-2373 -7 -2374 0
2373 -7 2374 0
-2373 7 2374 0
9 12 -2375 0
-9 -12 -2375 0
9 -12 2375 0
-9 12 2375 0
14 15 -2376 0
-14 -15 -2376 0
14 -15 2376 0
-14 15 2376 0
2376 16 -2377 0
-2376 -16 -2377 0
2376 -16 2377 0
-2376 16 2377 0
17 18 -2378 0
-17 -18 -2378 0
17 -18 2378 0
-17 18 2378 0
2378 19 -2379 0
-2378 -19 -2379 0
2378 -19 2379 0
-2378 19 2379 0
22 23 -2380 0
-22 -23 -2380 0
22 -23 2380 0
-22 23 2380 0
2380 24 -2381 0
-2380 -24 -2381 0
2380 -24 2381 0
-2380 24 2381 0
2372 2374 -2382 0
-2372 -2374 -2382 0
2372 -2374 2382 0
-2372 2374 2382 0
2382 2375 -2383 0
-2382 -2375 -2383 0
2382 -2375 2383 0
-2382 2375 2383 0
2372 2377 -2384 0
-2372 -2377 -2384 0
2372 -2377 2384 0
-2372 2377 2384 0
2384 2379 -2385 0
-2384 -2379 -2385 0
2384 -2379 2385 0
-2384 2379 2385 0
2374 2377 -2386 0
-2374 -2377 -2386 0
2374 -2377 2386 0
-2374 2377 2386 0
2386 2381 -2387 0
-2386 -2381 -2387 0
2386 -2381 2387 0
-2386 2381 2387 0
2375 2379 -2388 0
-2375 -2379 -2388 0
2375 -2379 2388 0
-2375 2379 2388 0
2388 2381 -2389 0
-2388 -2381 -2389 0
2388 -2381 2389 0
-2388 2381 2389 0
2383 2385 2387 2389 0
2 3 -2390 0
-2 -3 -2390 0
2 -3 2390 0
-2 3 2390 0
2390 4 -2391 0
-2390 -4 -2391 0
2390 -4 2391 0
-2390 4 2391 0
5 6 -2392 0
-5 -6 -2392 0
5 -6 2392 0
-5 6 2392 0
2392 7 -2393 0
-2392 -7 -2393 0
2392 -7 2393 0
-2392 7 2393 0
9 11 -2394 0
-9 -11 -2394 0
9 -11 2394 0
-9 11 2394 0
2394 12 -2395 0
-2394 -12 -2395 0
2394 -12 2395 0
-2394 12 2395 0
14 15 -2396 0
-14 -15 -2396 0
14 -15 2396 0
-14 15 2396 0
2396 16 -2397 0
-2396 -16 -2397 0
2396 -16 2397 0
-2396 16 2397 0
17 18 -2398 0
-17 -18 -2398 0
17 -18 2398 0
-17 18 2398 0
2398 20 -2399 0
-2398 -20 -2399 0
2398 -20 2399 0
-2398 20 2399 0
22 23 -2400 0
-22 -23 -2400 0
22 -23 2400 0
-22 23 2400 0
2391 2393 -2401 0
-2391 -2393 -2401 0
2391 -2393 2401 0
-2391 2393 2401 0
2401 2395 -2402 0
-2401 -2395 -2402 0
2401 -2395 2402 0
-2401 2395 2402 0
2391 2397 -2403 0
-2391 -2397 -2403 0
2391 -2397 2403 0
-2391 2397 2403 0
2403 2399 -2404 0
-2403 -2399 -2404 0
2403 -2399 2404 0
-2403 2399 2404 0
2393 2397 -2405 0
-2393 -2397 -2405 0
2393 -2397 2405 0
-2393 2397 2405 0
2405 2400 -2406 0
-2405 -2400 -2406 0
2405 -2400 2406 0
-2405 2400 2406 0
2395 2399 -2407 0
-2395 -2399 -2407 0
2395 -2399 2407 0
-2395 2399 2407 0
2407 2400 -2408 0
-2407 -2400 -2408 0
2407 -2400 2408 0
-2407 2400 2408 0
2402 2404 2406 2408 0
2 3 -2409 0
-2 -3 -2409 0
2 -3 2409 0
-2 3 2409 0
2409 4 -2410 0
-2409 -4 -2410 0
2409 -4 2410 0
-2409 4 2410 0
5 6 -2411 0
-5 -6 -2411 0
5 -6 2411 0
-5 6 2411 0
2411 7 -2412 0
-2411 -7 -2412 0
2411 -7 2412 0
-2411 7 2412 0
10 11 -2413 0
-10 -11 -2413 0
10 -11 2413 0
-10 11 2413 0
14 15 -2414 0
-14 -15 -2414 0
14 -15 2414 0
-14 15 2414 0
2414 16 -2415 0
-2414 -16 -2415 0
2414 -16 2415 0
-2414 16 2415 0
17 19 -2416 0
-17 -19 -2416 0
17 -19 2416 0
-17 19 2416 0
2416 20 -2417 0
-2416 -20 -2417 0
2416 -20 2417 0
-2416 20 2417 0
21 22 -2418 0
-21 -22 -2418 0
21 -22 2418 0
-21 22 2418 0
2418 24 -2419 0
-2418 -24 -2419 0
2418 -24 2419 0
-2418 24 2419 0
2410 2412 -2420 0
-2410 -2412 -2420 0
2410 -2412 2420 0
-2410 2412 2420 0
2420 2413 -2421 0
-2420 -2413 -2421 0
2420 -2413 2421 0
-2420 2413 2421 0
2410 2415 -2422 0
-2410 -2415 -2422 0
2410 -2415 2422 0
-2410 2415 2422 0
2422 2417 -2423 0
-2422 -2417 -2423 0
2422 -2417 2423 0
-2422 2417 2423 0
2412 2415 -2424 0
-2412 -2415 -2424 0
2412 -2415 2424 0
-2412 2415 2424 0
2424 2419 -2425 0
-2424 -2419 -2425 0
2424 -2419 2425 0
-2424 2419 2425 0
2413 2417 -2426 0
-2413 -2417 -2426 0
2413 -2417 2426 0
-2413 2417 2426 0
2426 2419 -2427 0
-2426 -2419 -2427 0
2426 -2419 2427 0
-2426 2419 2427 0
2421 2423 2425 2427 0
2 3 -2428 0
-2 -3 -2428 0
2 -3 2428 0
-2 3 2428 0
2428 4 -2429 0
-2428 -4 -2429 0
2428 -4 2429 0
-2428 4 2429 0
5 6 -2430 0
-5 -6 -2430 0
5 -6 2430 0
-5 6 2430 0
2430 7 -2431 0
-2430 -7 -2431 0
2430 -7 2431 0
-2430 7 2431 0
10 11 -2432 0
-10 -11 -2432 0
10 -11 2432 0
-10 11 2432 0
2432 12 -2433 0
-2432 -12 -2433 0
2432 -12 2433 0
-2432 12 2433 0
14 15 -2434 0
-14 -15 -2434 0
14 -15 2434 0
-14 15 2434 0
2434 16 -2435 0
-2434 -16 -2435 0
2434 -16 2435 0
-2434 16 2435 0
17 20 -2436 0
-17 -20 -2436 0
17 -20 2436 0
-17 20 2436 0
21 22 -2437 0
-21 -22 -2437 0
21 -22 2437 0
-21 22 2437 0
2437 23 -2438 0
-2437 -23 -2438 0
2437 -23 2438 0
-2437 23 2438 0
2429 2431 -2439 0
-2429 -2431 -2439 0
2429 -2431 2439 0
-2429 2431 2439 0
2439 2433 -2440 0
-2439 -2433 -2440 0
2439 -2433 2440 0
-2439 2433 2440 0
2429 2435 -2441 0
-2429 -2435 -2441 0
2429 -2435 2441 0
-2429 2435 2441 0
2441 2436 -2442 0
-2441 -2436 -2442 0
2441 -2436 2442 0
-2441 2436 2442 0
2431 2435 -2443 0
-2431 -2435 -2443 0
2431 -2435 2443 0
-2431 2435 2443 0
2443 2438 -2444 0
-2443 -2438 -2444 0
2443 -2438 2444 0
-2443 2438 2444 0
2433 2436 -2445 0
-2433 -2436 -2445 0
2433 -2436 2445 0
-2433 2436 2445 0
2445 2438 -2446 0
-2445 -2438 -2446 0
2445 -2438 2446 0
-2445 2438 2446 0
2440 2442 2444 2446 0
2 3 -2447 0
-2 -3 -2447 0
2 -3 2447 0
-2 3 2447 0
2447 4 -2448 0
-2447 -4 -2448 0
2447 -4 2448 0
-2447 4 2448 0
5 6 -2449 0
-5 -6 -2449 0
5 -6 2449 0
-5 6 2449 0
2449 7 -2450 0
-2449 -7 -2450 0
2449 -7 2450 0
-2449 7 2450 0
9 10 -2451 0
-9 -10 -2451 0
9 -10 2451 0
-9 10 2451 0
2451 11 -2452 0
-2451 -11 -2452 0
2451 -11 2452 0
-2451 11 2452 0
14 15 -2453 0
-14 -15 -2453 0
14 -15 2453 0
-14 15 2453 0
2453 16 -2454 0
-2453 -16 -2454 0
2453 -16 2454 0
-2453 16 2454 0
18 19 -2455 0
-18 -19 -2455 0
18 -19 2455 0
-18 19 2455 0
2455 20 -2456 0
-2455 -20 -2456 0
2455 -20 2456 0
-2455 20 2456 0
21 24 -2457 0
-21 -24 -2457 0
21 -24 2457 0
-21 24 2457 0
2448 2450 -2458 0
-2448 -2450 -2458 0
2448 -2450 2458 0
-2448 2450 2458 0
2458 2452 -2459 0
-2458 -2452 -2459 0
2458 -2452 2459 0
-2458 2452 2459 0
2448 2454 -2460 0
-2448 -2454 -2460 0
2448 -2454 2460 0
-2448 2454 2460 0
2460 2456 -2461 0
-2460 -2456 -2461 0
2460 -2456 2461 0
-2460 2456 2461 0
2450 2454 -2462 0
-2450 -2454 -2462 0
2450 -2454 2462 0
-2450 2454 2462 0
2462 2457 -2463 0
-2462 -2457 -2463 0
2462 -2457 2463 0
-2462 2457 2463 0
2452 2456 -2464 0
-2452 -2456 -2464 0
2452 -2456 2464 0
-2452 2456 2464 0
2464 2457 -2465 0
-2464 -2457 -2465 0
2464 -2457 2465 0
-2464 2457 2465 0
2459 2461 2463 2465 0
2 3 -2466 0
-2 -3 -2466 0
2 -3 2466 0
-2 3 2466 0
2466 4 -2467 0
-2466 -4 -2467 0
2466 -4 2467 0
-2466 4 2467 0
5 6 -2468 0
-5 -6 -2468 0
5 -6 2468 0
-5 6 2468 0
2468 7 -2469 0
-2468 -7 -2469 0
2468 -7 2469 0
-2468 7 2469 0
9 10 -2470 0
-9 -10 -2470 0
9 -10 2470 0
-9 10 2470 0
2470 12 -2471 0
-2470 -12 -2471 0
2470 -12 2471 0
-2470 12 2471 0
14 15 -2472 0
-14 -15 -2472 0
14 -15 2472 0
-14 15 2472 0
2472 16 -2473 0
-2472 -16 -2473 0
2472 -16 2473 0
-2472 16 2473 0
18 19 -2474 0
-18 -19 -2474 0
18 -19 2474 0
-18 19 2474 0
21 23 -2475 0
-21 -23 -2475 0
21 -23 2475 0
-21 23 2475 0
2475 24 -2476 0
-2475 -24 -2476 0
2475 -24 2476 0
-2475 24 2476 0
2467 2469 -2477 0
-2467 -2469 -2477 0
2467 -2469 2477 0
-2467 2469 2477 0
2477 2471 -2478 0
-2477 -2471 -2478 0
2477 -2471 2478 0
-2477 2471 2478 0
2467 2473 -2479 0
-2467 -2473 -2479 0
2467 -2473 2479 0
-2467 2473 2479 0
2479 2474 -2480 0
-2479 -2474 -2480 0
2479 -2474 2480 0
-2479 2474 2480 0
2469 2473 -2481 0
-2469 -2473 -2481 0
2469 -2473 2481 0
-2469 2473 2481 0
2481 2476 -2482 0
-2481 -2476 -2482 0
2481 -2476 2482 0
-2481 2476 2482 0
2471 2474 -2483 0
-2471 -2474 -2483 0
2471 -2474 2483 0
-2471 2474 2483 0
2483 2476 -2484 0
-2483 -2476 -2484 0
2483 -2476 2484 0
-2483 2476 2484 0
2478 2480 2482 2484 0
2 3 -2485 0
-2 -3 -2485 0
2 -3 2485 0
-2 3 2485 0
2485 4 -2486 0
-2485 -4 -2486 0
2485 -4 2486 0
-2485 4 2486 0
5 6 -2487 0
-5 -6 -2487 0
5 -6 2487 0
-5 6 2487 0
2487 8 -2488 0
-2487 -8 -2488 0
2487 -8 2488 0
-2487 8 2488 0
9 12 -2489 0
-9 -12 -2489 0
9 -12 2489 0
-9 12 2489 0
14 15 -2490 0
-14 -15 -2490 0
14 -15 2490 0
-14 15 2490 0
17 18 -2491 0
-17 -18 -2491 0
17 -18 2491 0
-17 18 2491 0
2491 19 -2492 0
-2491 -19 -2492 0
2491 -19 2492 0
-2491 19 2492 0
21 22 -2493 0
-21 -22 -2493 0
21 -22 2493 0
-21 22 2493 0
2493 24 -2494 0
-2493 -24 -2494 0
2493 -24 2494 0
-2493 24 2494 0
2486 2488 -2495 0
-2486 -2488 -2495 0
2486 -2488 2495 0
-2486 2488 2495 0
2495 2489 -2496 0
-2495 -2489 -2496 0
2495 -2489 2496 0
-2495 2489 2496 0
2486 2490 -2497 0
-2486 -2490 -2497 0
2486 -2490 2497 0
-2486 2490 2497 0
2497 2492 -2498 0
-2497 -2492 -2498 0
2497 -2492 2498 0
-2497 2492 2498 0
2488 2490 -2499 0
-2488 -2490 -2499 0
2488 -2490 2499 0
-2488 2490 2499 0
2499 2494 -2500 0
-2499 -2494 -2500 0
2499 -2494 2500 0
-2499 2494 2500 0
2489 2492 -2501 0
-2489 -2492 -2501 0
2489 -2492 2501 0
-2489 2492 2501 0
2501 2494 -2502 0
-2501 -2494 -2502 0
2501 -2494 2502 0
-2501 2494 2502 0
2496 2498 2500 2502 0
2 3 -2503 0
-2 -3 -2503 0
2 -3 2503 0
-2 3 2503 0
2503 4 -2504 0
-2503 -4 -2504 0
2503 -4 2504 0
-2503 4 2504 0
5 6 -2505 0
-5 -6 -2505 0
5 -6 2505 0
-5 6 2505 0
2505 8 -2506 0
-2505 -8 -2506 0
2505 -8 2506 0
-2505 8 2506 0
9 11 -2507 0
-9 -11 -2507 0
9 -11 2507 0
-9 11 2507 0
2507 12 -2508 0
-2507 -12 -2508 0
2507 -12 2508 0
-2507 12 2508 0
14 15 -2509 0
-14 -15 -2509 0
14 -15 2509 0
-14 15 2509 0
17 18 -2510 0
-17 -18 -2510 0
17 -18 2510 0
-17 18 2510 0
2510 20 -2511 0
-2510 -20 -2511 0
2510 -20 2511 0
-2510 20 2511 0
21 22 -2512 0
-21 -22 -2512 0
21 -22 2512 0
-21 22 2512 0
2512 23 -2513 0
-2512 -23 -2513 0
2512 -23 2513 0
-2512 23 2513 0
2504 2506 -2514 0
-2504 -2506 -2514 0
2504 -2506 2514 0
-2504 2506 2514 0
2514 2508 -2515 0
-2514 -2508 -2515 0
2514 -2508 2515 0
-2514 2508 2515 0
2504 2509 -2516 0
-2504 -2509 -2516 0
2504 -2509 2516 0
-2504 2509 2516 0
2516 2511 -2517 0
-2516 -2511 -2517 0
2516 -2511 2517 0
-2516 2511 2517 0
2506 2509 -2518 0
-2506 -2509 -2518 0
2506 -2509 2518 0
-2506 2509 2518 0
2518 2513 -2519 0
-2518 -2513 -2519 0
2518 -2513 2519 0
-2518 2513 2519 0
2508 2511 -2520 0
-2508 -2511 -2520 0
2508 -2511 2520 0
-2508 2511 2520 0
2520 2513 -2521 0
-2520 -2513 -2521 0
2520 -2513 2521 0
-2520 2513 2521 0
2515 2517 2519 2521 0
2 3 -2522 0
-2 -3 -2522 0
2 -3 2522 0
-2 3 2522 0
2522 4 -2523 0
-2522 -4 -2523 0
2522 -4 2523 0
-2522 4 2523 0
5 6 -2524 0
-5 -6 -2524 0
5 -6 2524 0
-5 6 2524 0
2524 8 -2525 0
-2524 -8 -2525 0
2524 -8 2525 0
-2524 8 2525 0
10 11 -2526 0
-10 -11 -2526 0
10 -11 2526 0
-10 11 2526 0
14 15 -2527 0
-14 -15 -2527 0
14 -15 2527 0
-14 15 2527 0
17 19 -2528 0
-17 -19 -2528 0
17 -19 2528 0
-17 19 2528 0
2528 20 -2529 0
-2528 -20 -2529 0
2528 -20 2529 0
-2528 20 2529 0
22 23 -2530 0
-22 -23 -2530 0
22 -23 2530 0
-22 23 2530 0
2530 24 -2531 0
-2530 -24 -2531 0
2530 -24 2531 0
-2530 24 2531 0
2523 2525 -2532 0
-2523 -2525 -2532 0
2523 -2525 2532 0
-2523 2525 2532 0
2532 2526 -2533 0
-2532 -2526 -2533 0
2532 -2526 2533 0
-2532 2526 2533 0
2523 2527 -2534 0
-2523 -2527 -2534 0
2523 -2527 2534 0
-2523 2527 2534 0
2534 2529 -2535 0
-2534 -2529 -2535 0
2534 -2529 2535 0
-2534 2529 2535 0
2525 2527 -2536 0
-2525 -2527 -2536 0
2525 -2527 2536 0
-2525 2527 2536 0
2536 2531 -2537 0
-2536 -2531 -2537 0
2536 -2531 2537 0
-2536 2531 2537 0
2526 2529 -2538 0
-2526 -2529 -2538 0
2526 -2529 2538 0
-2526 2529 2538 0
2538 2531 -2539 0
-2538 -2531 -2539 0
2538 -2531 2539 0
-2538 2531 2539 0
2533 2535 2537 2539 0
2 3 -2540 0
-2 -3 -2540 0
2 -3 2540 0
-2 3 2540 0
2540 4 -2541 0
-2540 -4 -2541 0
2540 -4 2541 0
-2540 4 2541 0
5 6 -2542 0
-5 -6 -2542 0
5 -6 2542 0
-5 6 2542 0
2542 8 -2543 0
-2542 -8 -2543 0
2542 -8 2543 0
-2542 8 2543 0
10 11 -2544 0
-10 -11 -2544 0
10 -11 2544 0
-10 11 2544 0
2544 12 -2545 0
-2544 -12 -2545 0
2544 -12 2545 0
-2544 12 2545 0
14 15 -2546 0
-14 -15 -2546 0
14 -15 2546 0
-14 15 2546 0
17 20 -2547 0
-17 -20 -2547 0
17 -20 2547 0
-17 20 2547 0
22 23 -2548 0
-22 -23 -2548 0
22 -23 2548 0
-22 23 2548 0
2541 2543 -2549 0
-2541 -2543 -2549 0
2541 -2543 2549 0
-2541 2543 2549 0
2549 2545 -2550 0
-2549 -2545 -2550 0
2549 -2545 2550 0
-2549 2545 2550 0
2541 2546 -2551 0
-2541 -2546 -2551 0
2541 -2546 2551 0
-2541 2546 2551 0
2551 2547 -2552 0
-2551 -2547 -2552 0
2551 -2547 2552 0
-2551 2547 2552 0
2543 2546 -2553 0
-2543 -2546 -2553 0
2543 -2546 2553 0
-2543 2546 2553 0
2553 2548 -2554 0
-2553 -2548 -2554 0
2553 -2548 2554 0
-2553 2548 2554 0
2545 2547 -2555 0
-2545 -2547 -2555 0
2545 -2547 2555 0
-2545 2547 2555 0
2555 2548 -2556 0
-2555 -2548 -2556 0
2555 -2548 2556 0
-2555 2548 2556 0
2550 2552 2554 2556 0
2 3 -2557 0
-2 -3 -2557 0
2 -3 2557 0
-2 3 2557 0
2557 4 -2558 0
-2557 -4 -2558 0
2557 -4 2558 0
-2557 4 2558 0
5 6 -2559 0
-5 -6 -2559 0
5 -6 2559 0
-5 6 2559 0
2559 8 -2560 0
-2559 -8 -2560 0
2559 -8 2560 0
-2559 8 2560 0
9 10 -2561 0
-9 -10 -2561 0
9 -10 2561 0
-9 10 2561 0
2561 11 -2562 0
-2561 -11 -2562 0
2561 -11 2562 0
-2561 11 2562 0
14 15 -2563 0
-14 -15 -2563 0
14 -15 2563 0
-14 15 2563 0
18 19 -2564 0
-18 -19 -2564 0
18 -19 2564 0
-18 19 2564 0
2564 20 -2565 0
-2564 -20 -2565 0
2564 -20 2565 0
-2564 20 2565 0
21 23 -2566 0
-21 -23 -2566 0
21 -23 2566 0
-21 23 2566 0
2566 24 -2567 0
-2566 -24 -2567 0
2566 -24 2567 0
-2566 24 2567 0
2558 2560 -2568 0
-2558 -2560 -2568 0
2558 -2560 2568 0
-2558 2560 2568 0
2568 2562 -2569 0
-2568 -2562 -2569 0
2568 -2562 2569 0
-2568 2562 2569 0
2558 2563 -2570 0
-2558 -2563 -2570 0
2558 -2563 2570 0
-2558 2563 2570 0
2570 2565 -2571 0
-2570 -2565 -2571 0
2570 -2565 2571 0
-2570 2565 2571 0
2560 2563 -2572 0
-2560 -2563 -2572 0
2560 -2563 2572 0
-2560 2563 2572 0
2572 2567 -2573 0
-2572 -2567 -2573 0
2572 -2567 2573 0
-2572 2567 2573 0
2562 2565 -2574 0
-2562 -2565 -2574 0
2562 -2565 2574 0
-2562 2565 2574 0
2574 2567 -2575 0
-2574 -2567 -2575 0
2574 -2567 2575 0
-2574 2567 2575 0
2569 2571 2573 2575 0
2 3 -2576 0
-2 -3 -2576 0
2 -3 2576 0
-2 3 2576 0
2576 4 -2577 0
-2576 -4 -2577 0
2576 -4 2577 0
-2576 4 2577 0
5 6 -2578 0
-5 -6 -2578 0
5 -6 2578 0
-5 6 2578 0
2578 8 -2579 0
-2578 -8 -2579 0
2578 -8 2579 0
-2578 8 2579 0
9 10 -2580 0
-9 -10 -2580 0
9 -10 2580 0
-9 10 2580 0
2580 12 -2581 0
-2580 -12 -2581 0
2580 -12 2581 0
-2580 12 2581 0
14 15 -2582 0
-14 -15 -2582 0
14 -15 2582 0
-14 15 2582 0
18 19 -2583 0
-18 -19 -2583 0
18 -19 2583 0
-18 19 2583 0
21 24 -2584 0
-21 -24 -2584 0
21 -24 2584 0
-21 24 2584 0
2577 2579 -2585 0
-2577 -2579 -2585 0
2577 -2579 2585 0
-2577 2579 2585 0
2585 2581 -2586 0
-2585 -2581 -2586 0
2585 -2581 2586 0
-2585 2581 2586 0
2577 2582 -2587 0
-2577 -2582 -2587 0
2577 -2582 2587 0
-2577 2582 2587 0
2587 2583 -2588 0
-2587 -2583 -2588 0
2587 -2583 2588 0
-2587 2583 2588 0
2579 2582 -2589 0
-2579 -2582 -2589 0
2579 -2582 2589 0
-2579 2582 2589 0
2589 2584 -2590 0
-2589 -2584 -2590 0
2589 -2584 2590 0
-2589 2584 2590 0
2581 2583 -2591 0
-2581 -2583 -2591 0
2581 -2583 2591 0
-2581 2583 2591 0
2591 2584 -2592 0
-2591 -2584 -2592 0
2591 -2584 2592 0
-2591 2584 2592 0
2586 2588 2590 2592 0
1 2 -2593 0
-1 -2 -2593 0
1 -2 2593 0
-1 2 2593 0
2593 3 -2594 0
-2593 -3 -2594 0
2593 -3 2594 0
-2593 3 2594 0
5 8 -2595 0
-5 -8 -2595 0
5 -8 2595 0
-5 8 2595 0
9 12 -2596 0
-9 -12 -2596 0
9 -12 2596 0
-9 12 2596 0
14 15 -2597 0
-14 -15 -2597 0
14 -15 2597 0
-14 15 2597 0
2597 16 -2598 0
-2597 -16 -2598 0
2597 -16 2598 0
-2597 16 2598 0
18 19 -2599 0
-18 -19 -2599 0
18 -19 2599 0
-18 19 2599 0
2599 20 -2600 0
-2599 -20 -2600 0
2599 -20 2600 0
-2599 20 2600 0
21 24 -2601 0
-21 -24 -2601 0
21 -24 2601 0
-21 24 2601 0
2594 2595 -2602 0
-2594 -2595 -2602 0
2594 -2595 2602 0
-2594 2595 2602 0
2602 2596 -2603 0
-2602 -2596 -2603 0
2602 -2596 2603 0
-2602 2596 2603 0
2594 2598 -2604 0
-2594 -2598 -2604 0
2594 -2598 2604 0
-2594 2598 2604 0
2604 2600 -2605 0
-2604 -2600 -2605 0
2604 -2600 2605 0
-2604 2600 2605 0
2595 2598 -2606 0
-2595 -2598 -2606 0
2595 -2598 2606 0
-2595 2598 2606 0
2606 2601 -2607 0
-2606 -2601 -2607 0
2606 -2601 2607 0
-2606 2601 2607 0
2596 2600 -2608 0
-2596 -2600 -2608 0
2596 -2600 2608 0
-2596 2600 2608 0
2608 2601 -2609 0
-2608 -2601 -2609 0
2608 -2601 2609 0
-2608 2601 2609 0
2603 2605 2607 2609 0
1 2 -2610 0
-1 -2 -2610 0
1 -2 2610 0
-1 2 2610 0
2610 3 -2611 0
-2610 -3 -2611 0
2610 -3 2611 0
-2610 3 2611 0
5 8 -2612 0
-5 -8 -2612 0
5 -8 2612 0
-5 8 2612 0
9 11 -2613 0
-9 -11 -2613 0
9 -11 2613 0
-9 11 2613 0
2613 12 -2614 0
-2613 -12 -2614 0
2613 -12 2614 0
-2613 12 2614 0
14 15 -2615 0
-14 -15 -2615 0
14 -15 2615 0
-14 15 2615 0
2615 16 -2616 0
-2615 -16 -2616 0
2615 -16 2616 0
-2615 16 2616 0
18 19 -2617 0
-18 -19 -2617 0
18 -19 2617 0
-18 19 2617 0
21 23 -2618 0
-21 -23 -2618 0
21 -23 2618 0
-21 23 2618 0
2618 24 -2619 0
-2618 -24 -2619 0
2618 -24 2619 0
-2618 24 2619 0
2611 2612 -2620 0
-2611 -2612 -2620 0
2611 -2612 2620 0
-2611 2612 2620 0
2620 2614 -2621 0
-2620 -2614 -2621 0
2620 -2614 2621 0
-2620 2614 2621 0
2611 2616 -2622 0
-2611 -2616 -2622 0
2611 -2616 2622 0
-2611 2616 2622 0
2622 2617 -2623 0
-2622 -2617 -2623 0
2622 -2617 2623 0
-2622 2617 2623 0
2612 2616 -2624 0
-2612 -2616 -2624 0
2612 -2616 2624 0
-2612 2616 2624 0
2624 2619 -2625 0
-2624 -2619 -2625 0
2624 -2619 2625 0
-2624 2619 2625 0
2614 2617 -2626 0
-2614 -2617 -2626 0
2614 -2617 2626 0
-2614 2617 2626 0
2626 2619 -2627 0
-2626 -2619 -2627 0
2626 -2619 2627 0
-2626 2619 2627 0
2621 2623 2625 2627 0
1 2 -2628 0
-1 -2 -2628 0
1 -2 2628 0
-1 2 2628 0
2628 3 -2629 0
-2628 -3 -2629 0
2628 -3 2629 0
-2628 3 2629 0
5 8 -2630 0
-5 -8 -2630 0
5 -8 2630 0
-5 8 2630 0
10 11 -2631 0
-10 -11 -2631 0
10 -11 2631 0
-10 11 2631 0
14 15 -2632 0
-14 -15 -2632 0
14 -15 2632 0
-14 15 2632 0
2632 16 -2633 0
-2632 -16 -2633 0
2632 -16 2633 0
-2632 16 2633 0
17 18 -2634 0
-17 -18 -2634 0
17 -18 2634 0
-17 18 2634 0
2634 20 -2635 0
-2634 -20 -2635 0
2634 -20 2635 0
-2634 20 2635 0
22 23 -2636 0
-22 -23 -2636 0
22 -23 2636 0
-22 23 2636 0
2629 2630 -2637 0
-2629 -2630 -2637 0
2629 -2630 2637 0
-2629 2630 2637 0
2637 2631 -2638 0
-2637 -2631 -2638 0
2637 -2631 2638 0
-2637 2631 2638 0
2629 2633 -2639 0
-2629 -2633 -2639 0
2629 -2633 2639 0
-2629 2633 2639 0
2639 2635 -2640 0
-2639 -2635 -2640 0
2639 -2635 2640 0
-2639 2635 2640 0
2630 2633 -2641 0
-2630 -2633 -2641 0
2630 -2633 2641 0
-2630 2633 2641 0
2641 2636 -2642 0
-2641 -2636 -2642 0
2641 -2636 2642 0
-2641 2636 2642 0
2631 2635 -2643 0
-2631 -2635 -2643 0
2631 -2635 2643 0
-2631 2635 2643 0
2643 2636 -2644 0
-2643 -2636 -2644 0
2643 -2636 2644 0
-2643 2636 2644 0
2638 2640 2642 2644 0
1 2 -2645 0
-1 -2 -2645 0
1 -2 2645 0
-1 2 2645 0
2645 3 -2646 0
-2645 -3 -2646 0
2645 -3 2646 0
-2645 3 2646 0
5 8 -2647 0
-5 -8 -2647 0
5 -8 2647 0
-5 8 2647 0
10 11 -2648 0
-10 -11 -2648 0
10 -11 2648 0
-10 11 2648 0
2648 12 -2649 0
-2648 -12 -2649 0
2648 -12 2649 0
-2648 12 2649 0
14 15 -2650 0
-14 -15 -2650 0
14 -15 2650 0
-14 15 2650 0
2650 16 -2651 0
-2650 -16 -2651 0
2650 -16 2651 0
-2650 16 2651 0
17 18 -2652 0
-17 -18 -2652 0
17 -18 2652 0
-17 18 2652 0
2652 19 -2653 0
-2652 -19 -2653 0
2652 -19 2653 0
-2652 19 2653 0
22 23 -2654 0
-22 -23 -2654 0
22 -23 2654 0
-22 23 2654 0
2654 24 -2655 0
-2654 -24 -2655 0
2654 -24 2655 0
-2654 24 2655 0
2646 2647 -2656 0
-2646 -2647 -2656 0
2646 -2647 2656 0
-2646 2647 2656 0
2656 2649 -2657 0
-2656 -2649 -2657 0
2656 -2649 2657 0
-2656 2649 2657 0
2646 2651 -2658 0
-2646 -2651 -2658 0
2646 -2651 2658 0
-2646 2651 2658 0
2658 2653 -2659 0
-2658 -2653 -2659 0
2658 -2653 2659 0
-2658 2653 2659 0
2647 2651 -2660 0
-2647 -2651 -2660 0
2647 -2651 2660 0
-2647 2651 2660 0
2660 2655 -2661 0
-2660 -2655 -2661 0
2660 -2655 2661 0
-2660 2655 2661 0
2649 2653 -2662 0
-2649 -2653 -2662 0
2649 -2653 2662 0
-2649 2653 2662 0
2662 2655 -2663 0
-2662 -2655 -2663 0
2662 -2655 2663 0
-2662 2655 2663 0
2657 2659 2661 2663 0
1 2 -2664 0
-1 -2 -2664 0
1 -2 2664 0
-1 2 2664 0
2664 3 -2665 0
-2664 -3 -2665 0
2664 -3 2665 0
-2664 3 2665 0
5 8 -2666 0
-5 -8 -2666 0
5 -8 2666 0
-5 8 2666 0
9 10 -2667 0
-9 -10 -2667 0
9 -10 2667 0
-9 10 2667 0
2667 11 -2668 0
-2667 -11 -2668 0
2667 -11 2668 0
-2667 11 2668 0
14 15 -2669 0
-14 -15 -2669 0
14 -15 2669 0
-14 15 2669 0
2669 16 -2670 0
-2669 -16 -2670 0
2669 -16 2670 0
-2669 16 2670 0
17 20 -2671 0
-17 -20 -2671 0
17 -20 2671 0
-17 20 2671 0
21 22 -2672 0
-21 -22 -2672 0
21 -22 2672 0
-21 22 2672 0
2672 23 -2673 0
-2672 -23 -2673 0
2672 -23 2673 0
-2672 23 2673 0
2665 2666 -2674 0
-2665 -2666 -2674 0
2665 -2666 2674 0
-2665 2666 2674 0
2674 2668 -2675 0
-2674 -2668 -2675 0
2674 -2668 2675 0
-2674 2668 2675 0
2665 2670 -2676 0
-2665 -2670 -2676 0
2665 -2670 2676 0
-2665 2670 2676 0
2676 2671 -2677 0
-2676 -2671 -2677 0
2676 -2671 2677 0
-2676 2671 2677 0
2666 2670 -2678 0
-2666 -2670 -2678 0
2666 -2670 2678 0
-2666 2670 2678 0
2678 2673 -2679 0
-2678 -2673 -2679 0
2678 -2673 2679 0
-2678 2673 2679 0
2668 2671 -2680 0
-2668 -2671 -2680 0
2668 -2671 2680 0
-2668 2671 2680 0
2680 2673 -2681 0
-2680 -2673 -2681 0
2680 -2673 2681 0
-2680 2673 2681 0
2675 2677 2679 2681 0
1 2 -2682 0
-1 -2 -2682 0
1 -2 2682 0
-1 2 2682 0
2682 3 -2683 0
-2682 -3 -2683 0
2682 -3 2683 0
-2682 3 2683 0
5 8 -2684 0
-5 -8 -2684 0
5 -8 2684 0
-5 8 2684 0
9 10 -2685 0
-9 -10 -2685 0
9 -10 2685 0
-9 10 2685 0
2685 12 -2686 0
-2685 -12 -2686 0
2685 -12 2686 0
-2685 12 2686 0
14 15 -2687 0
-14 -15 -2687 0
14 -15 2687 0
-14 15 2687 0
2687 16 -2688 0
-2687 -16 -2688 0
2687 -16 2688 0
-2687 16 2688 0
17 19 -2689 0
-17 -19 -2689 0
17 -19 2689 0
-17 19 2689 0
2689 20 -2690 0
-2689 -20 -2690 0
2689 -20 2690 0
-2689 20 2690 0
21 22 -2691 0
-21 -22 -2691 0
21 -22 2691 0
-21 22 2691 0
2691 24 -2692 0
-2691 -24 -2692 0
2691 -24 2692 0
-2691 24 2692 0
2683 2684 -2693 0
-2683 -2684 -2693 0
2683 -2684 2693 0
-2683 2684 2693 0
2693 2686 -2694 0
-2693 -2686 -2694 0
2693 -2686 2694 0
-2693 2686 2694 0
2683 2688 -2695 0
-2683 -2688 -2695 0
2683 -2688 2695 0
-2683 2688 2695 0
2695 2690 -2696 0
-2695 -2690 -2696 0
2695 -2690 2696 0
-2695 2690 2696 0
2684 2688 -2697 0
-2684 -2688 -2697 0
2684 -2688 2697 0
-2684 2688 2697 0
2697 2692 -2698 0
-2697 -2692 -2698 0
2697 -2692 2698 0
-2697 2692 2698 0
2686 2690 -2699 0
-2686 -2690 -2699 0
2686 -2690 2699 0
-2686 2690 2699 0
2699 2692 -2700 0
-2699 -2692 -2700 0
2699 -2692 2700 0
-2699 2692 2700 0
2694 2696 2698 2700 0
1 2 -2701 0
-1 -2 -2701 0
1 -2 2701 0
-1 2 2701 0
2701 3 -2702 0
-2701 -3 -2702 0
2701 -3 2702 0
-2701 3 2702 0
5 7 -2703 0
-5 -7 -2703 0
5 -7 2703 0
-5 7 2703 0
2703 8 -2704 0
-2703 -8 -2704 0
2703 -8 2704 0
-2703 8 2704 0
9 12 -2705 0
-9 -12 -2705 0
9 -12 2705 0
-9 12 2705 0
14 15 -2706 0
-14 -15 -2706 0
14 -15 2706 0
-14 15 2706 0
18 19 -2707 0
-18 -19 -2707 0
18 -19 2707 0
-18 19 2707 0
2707 20 -2708 0
-2707 -20 -2708 0
2707 -20 2708 0
-2707 20 2708 0
21 23 -2709 0
-21 -23 -2709 0
21 -23 2709 0
-21 23 2709 0
2709 24 -2710 0
-2709 -24 -2710 0
2709 -24 2710 0
-2709 24 2710 0
2702 2704 -2711 0
-2702 -2704 -2711 0
2702 -2704 2711 0
-2702 2704 2711 0
2711 2705 -2712 0
-2711 -2705 -2712 0
2711 -2705 2712 0
-2711 2705 2712 0
2702 2706 -2713 0
-2702 -2706 -2713 0
2702 -2706 2713 0
-2702 2706 2713 0
2713 2708 -2714 0
-2713 -2708 -2714 0
2713 -2708 2714 0
-2713 2708 2714 0
2704 2706 -2715 0
-2704 -2706 -2715 0
2704 -2706 2715 0
-2704 2706 2715 0
2715 2710 -2716 0
-2715 -2710 -2716 0
2715 -2710 2716 0
-2715 2710 2716 0
2705 2708 -2717 0
-2705 -2708 -2717 0
2705 -2708 2717 0
-2705 2708 2717 0
2717 2710 -2718 0
-2717 -2710 -2718 0
2717 -2710 2718 0
-2717 2710 2718 0
2712 2714 2716 2718 0
1 2 -2719 0
-1 -2 -2719 0
1 -2 2719 0
-1 2 2719 0
2719 3 -2720 0
-2719 -3 -2720 0
2719 -3 2720 0
-2719 3 2720 0
5 7 -2721 0
-5 -7 -2721 0
5 -7 2721 0
-5 7 2721 0
2721 8 -2722 0
-2721 -8 -2722 0
2721 -8 2722 0
-2721 8 2722 0
9 11 -2723 0
-9 -11 -2723 0
9 -11 2723 0
-9 11 2723 0
2723 12 -2724 0
-2723 -12 -2724 0
2723 -12 2724 0
-2723 12 2724 0
14 15 -2725 0
-14 -15 -2725 0
14 -15 2725 0
-14 15 2725 0
18 19 -2726 0
-18 -19 -2726 0
18 -19 2726 0
-18 19 2726 0
21 24 -2727 0
-21 -24 -2727 0
21 -24 2727 0
-21 24 2727 0
2720 2722 -2728 0
-2720 -2722 -2728 0
2720 -2722 2728 0
-2720 2722 2728 0
2728 2724 -2729 0
-2728 -2724 -2729 0
2728 -2724 2729 0
-2728 2724 2729 0
2720 2725 -2730 0
-2720 -2725 -2730 0
2720 -2725 2730 0
-2720 2725 2730 0
2730 2726 -2731 0
-2730 -2726 -2731 0
2730 -2726 2731 0
-2730 2726 2731 0
2722 2725 -2732 0
-2722 -2725 -2732 0
2722 -2725 2732 0
-2722 2725 2732 0
2732 2727 -2733 0
-2732 -2727 -2733 0
2732 -2727 2733 0
-2732 2727 2733 0
2724 2726 -2734 0
-2724 -2726 -2734 0
2724 -2726 2734 0
-2724 2726 2734 0
2734 2727 -2735 0
-2734 -2727 -2735 0
2734 -2727 2735 0
-2734 2727 2735 0
2729 2731 2733 2735 0
1 2 -2736 0
-1 -2 -2736 0
1 -2 2736 0
-1 2 2736 0
2736 3 -2737 0
-2736 -3 -2737 0
2736 -3 2737 0
-2736 3 2737 0
5 7 -2738 0
-5 -7 -2738 0
5 -7 2738 0
-5 7 2738 0
2738 8 -2739 0
-2738 -8 -2739 0
2738 -8 2739 0
-2738 8 2739 0
10 11 -2740 0
-10 -11 -2740 0
10 -11 2740 0
-10 11 2740 0
14 15 -2741 0
-14 -15 -2741 0
14 -15 2741 0
-14 15 2741 0
17 18 -2742 0
-17 -18 -2742 0
17 -18 2742 0
-17 18 2742 0
2742 20 -2743 0
-2742 -20 -2743 0
2742 -20 2743 0
-2742 20 2743 0
21 22 -2744 0
-21 -22 -2744 0
21 -22 2744 0
-21 22 2744 0
2744 23 -2745 0
-2744 -23 -2745 0
2744 -23 2745 0
-2744 23 2745 0
2737 2739 -2746 0
-2737 -2739 -2746 0
2737 -2739 2746 0
-2737 2739 2746 0
2746 2740 -2747 0
-2746 -2740 -2747 0
2746 -2740 2747 0
-2746 2740 2747 0
2737 2741 -2748 0
-2737 -2741 -2748 0
2737 -2741 2748 0
-2737 2741 2748 0
2748 2743 -2749 0
-2748 -2743 -2749 0
2748 -2743 2749 0
-2748 2743 2749 0
2739 2741 -2750 0
-2739 -2741 -2750 0
2739 -2741 2750 0
-2739 2741 2750 0
2750 2745 -2751 0
-2750 -2745 -2751 0
2750 -2745 2751 0
-2750 2745 2751 0
2740 2743 -2752 0
-2740 -2743 -2752 0
2740 -2743 2752 0
-2740 2743 2752 0
2752 2745 -2753 0
-2752 -2745 -2753 0
2752 -2745 2753 0
-2752 2745 2753 0
2747 2749 2751 2753 0
1 2 -2754 0
-1 -2 -2754 0
1 -2 2754 0
-1 2 2754 0
2754 3 -2755 0
-2754 -3 -2755 0
2754 -3 2755 0
-2754 3 2755 0
5 7 -2756 0
-5 -7 -2756 0
5 -7 2756 0
-5 7 2756 0
2756 8 -2757 0
-2756 -8 -2757 0
2756 -8 2757 0
-2756 8 2757 0
10 11 -2758 0
-10 -11 -2758 0
10 -11 2758 0
-10 11 2758 0
2758 12 -2759 0
-2758 -12 -2759 0
2758 -12 2759 0
-2758 12 2759 0
14 15 -2760 0
-14 -15 -2760 0
14 -15 2760 0
-14 15 2760 0
17 18 -2761 0
-17 -18 -2761 0
17 -18 2761 0
-17 18 2761 0
2761 19 -2762 0
-2761 -19 -2762 0
2761 -19 2762 0
-2761 19 2762 0
21 22 -2763 0
-21 -22 -2763 0
21 -22 2763 0
-21 22 2763 0
2763 24 -2764 0
-2763 -24 -2764 0
2763 -24 2764 0
-2763 24 2764 0
2755 2757 -2765 0
-2755 -2757 -2765 0
2755 -2757 2765 0
-2755 2757 2765 0
2765 2759 -2766 0
-2765 -2759 -2766 0
2765 -2759 2766 0
-2765 2759 2766 0
2755 2760 -2767 0
-2755 -2760 -2767 0
2755 -2760 2767 0
-2755 2760 2767 0
2767 2762 -2768 0
-2767 -2762 -2768 0
2767 -2762 2768 0
-2767 2762 2768 0
2757 2760 -2769 0
-2757 -2760 -2769 0
2757 -2760 2769 0
-2757 2760 2769 0
2769 2764 -2770 0
-2769 -2764 -2770 0
2769 -2764 2770 0
-2769 2764 2770 0
2759 2762 -2771 0
-2759 -2762 -2771 0
2759 -2762 2771 0
-2759 2762 2771 0
2771 2764 -2772 0
-2771 -2764 -2772 0
2771 -2764 2772 0
-2771 2764 2772 0
2766 2768 2770 2772 0
1 2 -2773 0
-1 -2 -2773 0
1 -2 2773 0
-1 2 2773 0
2773 3 -2774 0
-2773 -3 -2774 0
2773 -3 2774 0
-2773 3 2774 0
5 7 -2775 0
-5 -7 -2775 0
5 -7 2775 0
-5 7 2775 0
2775 8 -2776 0
-2775 -8 -2776 0
2775 -8 2776 0
-2775 8 2776 0
9 10 -2777 0
-9 -10 -2777 0
9 -10 2777 0
-9 10 2777 0
2777 11 -2778 0
-2777 -11 -2778 0
2777 -11 2778 0
-2777 11 2778 0
14 15 -2779 0
-14 -15 -2779 0
14 -15 2779 0
-14 15 2779 0
17 20 -2780 0
-17 -20 -2780 0
17 -20 2780 0
-17 20 2780 0
22 23 -2781 0
-22 -23 -2781 0
22 -23 2781 0
-22 23 2781 0
2774 2776 -2782 0
-2774 -2776 -2782 0
2774 -2776 2782 0
-2774 2776 2782 0
2782 2778 -2783 0
-2782 -2778 -2783 0
2782 -2778 2783 0
-2782 2778 2783 0
2774 2779 -2784 0
-2774 -2779 -2784 0
2774 -2779 2784 0
-2774 2779 2784 0
2784 2780 -2785 0
-2784 -2780 -2785 0
2784 -2780 2785 0
-2784 2780 2785 0
2776 2779 -2786 0
-2776 -2779 -2786 0
2776 -2779 2786 0
-2776 2779 2786 0
2786 2781 -2787 0
-2786 -2781 -2787 0
2786 -2781 2787 0
-2786 2781 2787 0
2778 2780 -2788 0
-2778 -2780 -2788 0
2778 -2780 2788 0
-2778 2780 2788 0
2788 2781 -2789 0
-2788 -2781 -2789 0
2788 -2781 2789 0
-2788 2781 2789 0
2783 2785 2787 2789 0
1 2 -2790 0
-1 -2 -2790 0
1 -2 2790 0
-1 2 2790 0
2790 3 -2791 0
-2790 -3 -2791 0
2790 -3 2791 0
-2790 3 2791 0
5 7 -2792 0
-5 -7 -2792 0
5 -7 2792 0
-5 7 2792 0
2792 8 -2793 0
-2792 -8 -2793 0
2792 -8 2793 0
-2792 8 2793 0
9 10 -2794 0
-9 -10 -2794 0
9 -10 2794 0
-9 10 2794 0
2794 12 -2795 0
-2794 -12 -2795 0
2794 -12 2795 0
-2794 12 2795 0
14 15 -2796 0
-14 -15 -2796 0
14 -15 2796 0
-14 15 2796 0
17 19 -2797 0
-17 -19 -2797 0
17 -19 2797 0
-17 19 2797 0
2797 20 -2798 0
-2797 -20 -2798 0
2797 -20 2798 0
-2797 20 2798 0
22 23 -2799 0
-22 -23 -2799 0
22 -23 2799 0
-22 23 2799 0
2799 24 -2800 0
-2799 -24 -2800 0
2799 -24 2800 0
-2799 24 2800 0
2791 2793 -2801 0
-2791 -2793 -2801 0
2791 -2793 2801 0
-2791 2793 2801 0
2801 2795 -2802 0
-2801 -2795 -2802 0
2801 -2795 2802 0
-2801 2795 2802 0
2791 2796 -2803 0
-2791 -2796 -2803 0
2791 -2796 2803 0
-2791 2796 2803 0
2803 2798 -2804 0
-2803 -2798 -2804 0
2803 -2798 2804 0
-2803 2798 2804 0
2793 2796 -2805 0
-2793 -2796 -2805 0
2793 -2796 2805 0
-2793 2796 2805 0
2805 2800 -2806 0
-2805 -2800 -2806 0
2805 -2800 2806 0
-2805 2800 2806 0
2795 2798 -2807 0
-2795 -2798 -2807 0
2795 -2798 2807 0
-2795 2798 2807 0
2807 2800 -2808 0
-2807 -2800 -2808 0
2807 -2800 2808 0
-2807 2800 2808 0
2802 2804 2806 2808 0
1 2 -2809 0
-1 -2 -2809 0
1 -2 2809 0
-1 2 2809 0
2809 3 -2810 0
-2809 -3 -2810 0
2809 -3 2810 0
-2809 3 2810 0
6 7 -2811 0
-6 -7 -2811 0
6 -7 2811 0
-6 7 2811 0
9 12 -2812 0
-9 -12 -2812 0
9 -12 2812 0
-9 12 2812 0
13 14 -2813 0
-13 -14 -2813 0
13 -14 2813 0
-13 14 2813 0
2813 16 -2814 0
-2813 -16 -2814 0
2813 -16 2814 0
-2813 16 2814 0
18 19 -2815 0
-18 -19 -2815 0
18 -19 2815 0
-18 19 2815 0
2815 20 -2816 0
-2815 -20 -2816 0
2815 -20 2816 0
-2815 20 2816 0
22 23 -2817 0
-22 -23 -2817 0
22 -23 2817 0
-22 23 2817 0
2810 2811 -2818 0
-2810 -2811 -2818 0
2810 -2811 2818 0
-2810 2811 2818 0
2818 2812 -2819 0
-2818 -2812 -2819 0
2818 -2812 2819 0
-2818 2812 2819 0
2810 2814 -2820 0
-2810 -2814 -2820 0
2810 -2814 2820 0
-2810 2814 2820 0
2820 2816 -2821 0
-2820 -2816 -2821 0
2820 -2816 2821 0
-2820 2816 2821 0
2811 2814 -2822 0
-2811 -2814 -2822 0
2811 -2814 2822 0
-2811 2814 2822 0
2822 2817 -2823 0
-2822 -2817 -2823 0
2822 -2817 2823 0
-2822 2817 2823 0
2812 2816 -2824 0
-2812 -2816 -2824 0
2812 -2816 2824 0
-2812 2816 2824 0
2824 2817 -2825 0
-2824 -2817 -2825 0
2824 -2817 2825 0
-2824 2817 2825 0
2819 2821 2823 2825 0
1 2 -2826 0
-1 -2 -2826 0
1 -2 2826 0
-1 2 2826 0
2826 3 -2827 0
-2826 -3 -2827 0
2826 -3 2827 0
-2826 3 2827 0
6 7 -2828 0
-6 -7 -2828 0
6 -7 2828 0
-6 7 2828 0
9 11 -2829 0
-9 -11 -2829 0
9 -11 2829 0
-9 11 2829 0
2829 12 -2830 0
-2829 -12 -2830 0
2829 -12 2830 0
-2829 12 2830 0
13 14 -2831 0
-13 -14 -2831 0
13 -14 2831 0
-13 14 2831 0
2831 16 -2832 0
-2831 -16 -2832 0
2831 -16 2832 0
-2831 16 2832 0
18 19 -2833 0
-18 -19 -2833 0
18 -19 2833 0
-18 19 2833 0
22 23 -2834 0
-22 -23 -2834 0
22 -23 2834 0
-22 23 2834 0
2834 24 -2835 0
-2834 -24 -2835 0
2834 -24 2835 0
-2834 24 2835 0
2827 2828 -2836 0
-2827 -2828 -2836 0
2827 -2828 2836 0
-2827 2828 2836 0
2836 2830 -2837 0
-2836 -2830 -2837 0
2836 -2830 2837 0
-2836 2830 2837 0
2827 2832 -2838 0
-2827 -2832 -2838 0
2827 -2832 2838 0
-2827 2832 2838 0
2838 2833 -2839 0
-2838 -2833 -2839 0
2838 -2833 2839 0
-2838 2833 2839 0
2828 2832 -2840 0
-2828 -2832 -2840 0
2828 -2832 2840 0
-2828 2832 2840 0
2840 2835 -2841 0
-2840 -2835 -2841 0
2840 -2835 2841 0
-2840 2835 2841 0
2830 2833 -2842 0
-2830 -2833 -2842 0
2830 -2833 2842 0
-2830 2833 2842 0
2842 2835 -2843 0
-2842 -2835 -2843 0
2842 -2835 2843 0
-2842 2835 2843 0
2837 2839 2841 2843 0
1 2 -2844 0
-1 -2 -2844 0
1 -2 2844 0
-1 2 2844 0
2844 3 -2845 0
-2844 -3 -2845 0
2844 -3 2845 0
-2844 3 2845 0
6 7 -2846 0
-6 -7 -2846 0
6 -7 2846 0
-6 7 2846 0
10 11 -2847 0
-10 -11 -2847 0
10 -11 2847 0
-10 11 2847 0
13 14 -2848 0
-13 -14 -2848 0
13 -14 2848 0
-13 14 2848 0
2848 16 -2849 0
-2848 -16 -2849 0
2848 -16 2849 0
-2848 16 2849 0
17 18 -2850 0
-17 -18 -2850 0
17 -18 2850 0
-17 18 2850 0
2850 20 -2851 0
-2850 -20 -2851 0
2850 -20 2851 0
-2850 20 2851 0
21 24 -2852 0
-21 -24 -2852 0
21 -24 2852 0
-21 24 2852 0
2845 2846 -2853 0
-2845 -2846 -2853 0
2845 -2846 2853 0
-2845 2846 2853 0
2853 2847 -2854 0
-2853 -2847 -2854 0
2853 -2847 2854 0
-2853 2847 2854 0
2845 2849 -2855 0
-2845 -2849 -2855 0
2845 -2849 2855 0
-2845 2849 2855 0
2855 2851 -2856 0
-2855 -2851 -2856 0
2855 -2851 2856 0
-2855 2851 2856 0
2846 2849 -2857 0
-2846 -2849 -2857 0
2846 -2849 2857 0
-2846 2849 2857 0
2857 2852 -2858 0
-2857 -2852 -2858 0
2857 -2852 2858 0
-2857 2852 2858 0
2847 2851 -2859 0
-2847 -2851 -2859 0
2847 -2851 2859 0
-2847 2851 2859 0
2859 2852 -2860 0
-2859 -2852 -2860 0
2859 -2852 2860 0
-2859 2852 2860 0
2854 2856 2858 2860 0
1 2 -2861 0
-1 -2 -2861 0
1 -2 2861 0
-1 2 2861 0
2861 3 -2862 0
-2861 -3 -2862 0
2861 -3 2862 0
-2861 3 2862 0
6 7 -2863 0
-6 -7 -2863 0
6 -7 2863 0
-6 7 2863 0
10 11 -2864 0
-10 -11 -2864 0
10 -11 2864 0
-10 11 2864 0
2864 12 -2865 0
-2864 -12 -2865 0
2864 -12 2865 0
-2864 12 2865 0
13 14 -2866 0
-13 -14 -2866 0
13 -14 2866 0
-13 14 2866 0
2866 16 -2867 0
-2866 -16 -2867 0
2866 -16 2867 0
-2866 16 2867 0
17 18 -2868 0
-17 -18 -2868 0
17 -18 2868 0
-17 18 2868 0
2868 19 -2869 0
-2868 -19 -2869 0
2868 -19 2869 0
-2868 19 2869 0
21 23 -2870 0
-21 -23 -2870 0
21 -23 2870 0
-21 23 2870 0
2870 24 -2871 0
-2870 -24 -2871 0
2870 -24 2871 0
-2870 24 2871 0
2862 2863 -2872 0
-2862 -2863 -2872 0
2862 -2863 2872 0
-2862 2863 2872 0
2872 2865 -2873 0
-2872 -2865 -2873 0
2872 -2865 2873 0
-2872 2865 2873 0
2862 2867 -2874 0
-2862 -2867 -2874 0
2862 -2867 2874 0
-2862 2867 2874 0
2874 2869 -2875 0
-2874 -2869 -2875 0
2874 -2869 2875 0
-2874 2869 2875 0
2863 2867 -2876 0
-2863 -2867 -2876 0
2863 -2867 2876 0
-2863 2867 2876 0
2876 2871 -2877 0
-2876 -2871 -2877 0
2876 -2871 2877 0
-2876 2871 2877 0
2865 2869 -2878 0
-2865 -2869 -2878 0
2865 -2869 2878 0
-2865 2869 2878 0
2878 2871 -2879 0
-2878 -2871 -2879 0
2878 -2871 2879 0
-2878 2871 2879 0
2873 2875 2877 2879 0
1 2 -2880 0
-1 -2 -2880 0
1 -2 2880 0
-1 2 2880 0
2880 3 -2881 0
-2880 -3 -2881 0
2880 -3 2881 0
-2880 3 2881 0
6 7 -2882 0
-6 -7 -2882 0
6 -7 2882 0
-6 7 2882 0
9 10 -2883 0
-9 -10 -2883 0
9 -10 2883 0
-9 10 2883 0
2883 11 -2884 0
-2883 -11 -2884 0
2883 -11 2884 0
-2883 11 2884 0
13 14 -2885 0
-13 -14 -2885 0
13 -14 2885 0
-13 14 2885 0
2885 16 -2886 0
-2885 -16 -2886 0
2885 -16 2886 0
-2885 16 2886 0
17 20 -2887 0
-17 -20 -2887 0
17 -20 2887 0
-17 20 2887 0
21 22 -2888 0
-21 -22 -2888 0
21 -22 2888 0
-21 22 2888 0
2888 24 -2889 0
-2888 -24 -2889 0
2888 -24 2889 0
-2888 24 2889 0
2881 2882 -2890 0
-2881 -2882 -2890 0
2881 -2882 2890 0
-2881 2882 2890 0
2890 2884 -2891 0
-2890 -2884 -2891 0
2890 -2884 2891 0
-2890 2884 2891 0
2881 2886 -2892 0
-2881 -2886 -2892 0
2881 -2886 2892 0
-2881 2886 2892 0
2892 2887 -2893 0
-2892 -2887 -2893 0
2892 -2887 2893 0
-2892 2887 2893 0
2882 2886 -2894 0
-2882 -2886 -2894 0
2882 -2886 2894 0
-2882 2886 2894 0
2894 2889 -2895 0
-2894 -2889 -2895 0
2894 -2889 2895 0
-2894 2889 2895 0
2884 2887 -2896 0
-2884 -2887 -2896 0
2884 -2887 2896 0
-2884 2887 2896 0
2896 2889 -2897 0
-2896 -2889 -2897 0
2896 -2889 2897 0
-2896 2889 2897 0
2891 2893 2895 2897 0
1 2 -2898 0
-1 -2 -2898 0
1 -2 2898 0
-1 2 2898 0
2898 3 -2899 0
-2898 -3 -2899 0
2898 -3 2899 0
-2898 3 2899 0
6 7 -2900 0
-6 -7 -2900 0
6 -7 2900 0
-6 7 2900 0
9 10 -2901 0
-9 -10 -2901 0
9 -10 2901 0
-9 10 2901 0
2901 12 -2902 0
-2901 -12 -2902 0
2901 -12 2902 0
-2901 12 2902 0
13 14 -2903 0
-13 -14 -2903 0
13 -14 2903 0
-13 14 2903 0
2903 16 -2904 0
-2903 -16 -2904 0
2903 -16 2904 0
-2903 16 2904 0
17 19 -2905 0
-17 -19 -2905 0
17 -19 2905 0
-17 19 2905 0
2905 20 -2906 0
-2905 -20 -2906 0
2905 -20 2906 0
-2905 20 2906 0
21 22 -2907 0
-21 -22 -2907 0
21 -22 2907 0
-21 22 2907 0
2907 23 -2908 0
-2907 -23 -2908 0
2907 -23 2908 0
-2907 23 2908 0
2899 2900 -2909 0
-2899 -2900 -2909 0
2899 -2900 2909 0
-2899 2900 2909 0
2909 2902 -2910 0
-2909 -2902 -2910 0
2909 -2902 2910 0
-2909 2902 2910 0
2899 2904 -2911 0
-2899 -2904 -2911 0
2899 -2904 2911 0
-2899 2904 2911 0
2911 2906 -2912 0
-2911 -2906 -2912 0
2911 -2906 2912 0
-2911 2906 2912 0
2900 2904 -2913 0
-2900 -2904 -2913 0
2900 -2904 2913 0
-2900 2904 2913 0
2913 2908 -2914 0
-2913 -2908 -2914 0
2913 -2908 2914 0
-2913 2908 2914 0
2902 2906 -2915 0
-2902 -2906 -2915 0
2902 -2906 2915 0
-2902 2906 2915 0
2915 2908 -2916 0
-2915 -2908 -2916 0
2915 -2908 2916 0
-2915 2908 2916 0
2910 2912 2914 2916 0
1 2 -2917 0
-1 -2 -2917 0
1 -2 2917 0
-1 2 2917 0
2917 3 -2918 0
-2917 -3 -2918 0
2917 -3 2918 0
-2917 3 2918 0
6 7 -2919 0
-6 -7 -2919 0
6 -7 2919 0
-6 7 2919 0
2919 8 -2920 0
-2919 -8 -2920 0
2919 -8 2920 0
-2919 8 2920 0
9 12 -2921 0
-9 -12 -2921 0
9 -12 2921 0
-9 12 2921 0
13 14 -2922 0
-13 -14 -2922 0
13 -14 2922 0
-13 14 2922 0
2922 15 -2923 0
-2922 -15 -2923 0
2922 -15 2923 0
-2922 15 2923 0
18 19 -2924 0
-18 -19 -2924 0
18 -19 2924 0
-18 19 2924 0
2924 20 -2925 0
-2924 -20 -2925 0
2924 -20 2925 0
-2924 20 2925 0
21 22 -2926 0
-21 -22 -2926 0
21 -22 2926 0
-21 22 2926 0
2926 23 -2927 0
-2926 -23 -2927 0
2926 -23 2927 0
-2926 23 2927 0
2918 2920 -2928 0
-2918 -2920 -2928 0
2918 -2920 2928 0
-2918 2920 2928 0
2928 2921 -2929 0
-2928 -2921 -2929 0
2928 -2921 2929 0
-2928 2921 2929 0
2918 2923 -2930 0
-2918 -2923 -2930 0
2918 -2923 2930 0
-2918 2923 2930 0
2930 2925 -2931 0
-2930 -2925 -2931 0
2930 -2925 2931 0
-2930 2925 2931 0
2920 2923 -2932 0
-2920 -2923 -2932 0
2920 -2923 2932 0
-2920 2923 2932 0
2932 2927 -2933 0
-2932 -2927 -2933 0
2932 -2927 2933 0
-2932 2927 2933 0
2921 2925 -2934 0
-2921 -2925 -2934 0
2921 -2925 2934 0
-2921 2925 2934 0
2934 2927 -2935 0
-2934 -2927 -2935 0
2934 -2927 2935 0
-2934 2927 2935 0
2929 2931 2933 2935 0
1 2 -2936 0
-1 -2 -2936 0
1 -2 2936 0
-1 2 2936 0
2936 3 -2937 0
-2936 -3 -2937 0
2936 -3 2937 0
-2936 3 2937 0
6 7 -2938 0
-6 -7 -2938 0
6 -7 2938 0
-6 7 2938 0
2938 8 -2939 0
-2938 -8 -2939 0
2938 -8 2939 0
-2938 8 2939 0
9 11 -2940 0
-9 -11 -2940 0
9 -11 2940 0
-9 11 2940 0
2940 12 -2941 0
-2940 -12 -2941 0
2940 -12 2941 0
-2940 12 2941 0
13 14 -2942 0
-13 -14 -2942 0
13 -14 2942 0
-13 14 2942 0
2942 15 -2943 0
-2942 -15 -2943 0
2942 -15 2943 0
-2942 15 2943 0
18 19 -2944 0
-18 -19 -2944 0
18 -19 2944 0
-18 19 2944 0
21 22 -2945 0
-21 -22 -2945 0
21 -22 2945 0
-21 22 2945 0
2945 24 -2946 0
-2945 -24 -2946 0
2945 -24 2946 0
-2945 24 2946 0
2937 2939 -2947 0
-2937 -2939 -2947 0
2937 -2939 2947 0
-2937 2939 2947 0
2947 2941 -2948 0
-2947 -2941 -2948 0
2947 -2941 2948 0
-2947 2941 2948 0
2937 2943 -2949 0
-2937 -2943 -2949 0
2937 -2943 2949 0
-2937 2943 2949 0
2949 2944 -2950 0
-2949 -2944 -2950 0
2949 -2944 2950 0
-2949 2944 2950 0
2939 2943 -2951 0
-2939 -2943 -2951 0
2939 -2943 2951 0
-2939 2943 2951 0
2951 2946 -2952 0
-2951 -2946 -2952 0
2951 -2946 2952 0
-2951 2946 2952 0
2941 2944 -2953 0
-2941 -2944 -2953 0
2941 -2944 2953 0
-2941 2944 2953 0
2953 2946 -2954 0
-2953 -2946 -2954 0
2953 -2946 2954 0
-2953 2946 2954 0
2948 2950 2952 2954 0
1 2 -2955 0
-1 -2 -2955 0
1 -2 2955 0
-1 2 2955 0
2955 3 -2956 0
-2955 -3 -2956 0
2955 -3 2956 0
-2955 3 2956 0
6 7 -2957 0
-6 -7 -2957 0
6 -7 2957 0
-6 7 2957 0
2957 8 -2958 0
-2957 -8 -2958 0
2957 -8 2958 0
-2957 8 2958 0
10 11 -2959 0
-10 -11 -2959 0
10 -11 2959 0
-10 11 2959 0
13 14 -2960 0
-13 -14 -2960 0
13 -14 2960 0
-13 14 2960 0
2960 15 -2961 0
-2960 -15 -2961 0
2960 -15 2961 0
-2960 15 2961 0
17 18 -2962 0
-17 -18 -2962 0
17 -18 2962 0
-17 18 2962 0
2962 20 -2963 0
-2962 -20 -2963 0
2962 -20 2963 0
-2962 20 2963 0
21 23 -2964 0
-21 -23 -2964 0
21 -23 2964 0
-21 23 2964 0
2964 24 -2965 0
-2964 -24 -2965 0
2964 -24 2965 0
-2964 24 2965 0
2956 2958 -2966 0
-2956 -2958 -2966 0
2956 -2958 2966 0
-2956 2958 2966 0
2966 2959 -2967 0
-2966 -2959 -2967 0
2966 -2959 2967 0
-2966 2959 2967 0
2956 2961 -2968 0
-2956 -2961 -2968 0
2956 -2961 2968 0
-2956 2961 2968 0
2968 2963 -2969 0
-2968 -2963 -2969 0
2968 -2963 2969 0
-2968 2963 2969 0
2958 2961 -2970 0
-2958 -2961 -2970 0
2958 -2961 2970 0
-2958 2961 2970 0
2970 2965 -2971 0
-2970 -2965 -2971 0
2970 -2965 2971 0
-2970 2965 2971 0
2959 2963 -2972 0
-2959 -2963 -2972 0
2959 -2963 2972 0
-2959 2963 2972 0
2972 2965 -2973 0
-2972 -2965 -2973 0
2972 -2965 2973 0
-2972 2965 2973 0
2967 2969 2971 2973 0
1 2 -2974 0
-1 -2 -2974 0
1 -2 2974 0
-1 2 2974 0
2974 3 -2975 0
-2974 -3 -2975 0
2974 -3 2975 0
-2974 3 2975 0
6 7 -2976 0
-6 -7 -2976 0
6 -7 2976 0
-6 7 2976 0
2976 8 -2977 0
-2976 -8 -2977 0
2976 -8 2977 0
-2976 8 2977 0
10 11 -2978 0
-10 -11 -2978 0
10 -11 2978 0
-10 11 2978 0
2978 12 -2979 0
-2978 -12 -2979 0
2978 -12 2979 0
-2978 12 2979 0
13 14 -2980 0
-13 -14 -2980 0
13 -14 2980 0
-13 14 2980 0
2980 15 -2981 0
-2980 -15 -2981 0
2980 -15 2981 0
-2980 15 2981 0
17 18 -2982 0
-17 -18 -2982 0
17 -18 2982 0
-17 18 2982 0
2982 19 -2983 0
-2982 -19 -2983 0
2982 -19 2983 0
-2982 19 2983 0
21 24 -2984 0
-21 -24 -2984 0
21 -24 2984 0
-21 24 2984 0
2975 2977 -2985 0
-2975 -2977 -2985 0
2975 -2977 2985 0
-2975 2977 2985 0
2985 2979 -2986 0
-2985 -2979 -2986 0
2985 -2979 2986 0
-2985 2979 2986 0
2975 2981 -2987 0
-2975 -2981 -2987 0
2975 -2981 2987 0
-2975 2981 2987 0
2987 2983 -2988 0
-2987 -2983 -2988 0
2987 -2983 2988 0
-2987 2983 2988 0
2977 2981 -2989 0
-2977 -2981 -2989 0
2977 -2981 2989 0
-2977 2981 2989 0
2989 2984 -2990 0
-2989 -2984 -2990 0
2989 -2984 2990 0
-2989 2984 2990 0
2979 2983 -2991 0
-2979 -2983 -2991 0
2979 -2983 2991 0
-2979 2983 2991 0
2991 2984 -2992 0
-2991 -2984 -2992 0
2991 -2984 2992 0
-2991 2984 2992 0
2986 2988 2990 2992 0
1 2 -2993 0
-1 -2 -2993 0
1 -2 2993 0
-1 2 2993 0
2993 3 -2994 0
-2993 -3 -2994 0
2993 -3 2994 0
-2993 3 2994 0
6 7 -2995 0
-6 -7 -2995 0
6 -7 2995 0
-6 7 2995 0
2995 8 -2996 0
-2995 -8 -2996 0
2995 -8 2996 0
-2995 8 2996 0
9 10 -2997 0
-9 -10 -2997 0
9 -10 2997 0
-9 10 2997 0
2997 11 -2998 0
-2997 -11 -2998 0
2997 -11 2998 0
-2997 11 2998 0
13 14 -2999 0
-13 -14 -2999 0
13 -14 2999 0
-13 14 2999 0
2999 15 -3000 0
-2999 -15 -3000 0
2999 -15 3000 0
-2999 15 3000 0
17 20 -3001 0
-17 -20 -3001 0
17 -20 3001 0
-17 20 3001 0
22 23 -3002 0
-22 -23 -3002 0
22 -23 3002 0
-22 23 3002 0
3002 24 -3003 0
-3002 -24 -3003 0
3002 -24 3003 0
-3002 24 3003 0
2994 2996 -3004 0
-2994 -2996 -3004 0
2994 -2996 3004 0
-2994 2996 3004 0
3004 2998 -3005 0
-3004 -2998 -3005 0
3004 -2998 3005 0
-3004 2998 3005 0
2994 3000 -3006 0
-2994 -3000 -3006 0
2994 -3000 3006 0
-2994 3000 3006 0
3006 3001 -3007 0
-3006 -3001 -3007 0
3006 -3001 3007 0
-3006 3001 3007 0
2996 3000 -3008 0
-2996 -3000 -3008 0
2996 -3000 3008 0
-2996 3000 3008 0
3008 3003 -3009 0
-3008 -3003 -3009 0
3008 -3003 3009 0
-3008 3003 3009 0
2998 3001 -3010 0
-2998 -3001 -3010 0
2998 -3001 3010 0
-2998 3001 3010 0
3010 3003 -3011 0
-3010 -3003 -3011 0
3010 -3003 3011 0
-3010 3003 3011 0
3005 3007 3009 3011 0
1 2 -3012 0
-1 -2 -3012 0
1 -2 3012 0
-1 2 3012 0
3012 3 -3013 0
-3012 -3 -3013 0
3012 -3 3013 0
-3012 3 3013 0
6 7 -3014 0
-6 -7 -3014 0
6 -7 3014 0
-6 7 3014 0
3014 8 -3015 0
-3014 -8 -3015 0
3014 -8 3015 0
-3014 8 3015 0
9 10 -3016 0
-9 -10 -3016 0
9 -10 3016 0
-9 10 3016 0
3016 12 -3017 0
-3016 -12 -3017 0
3016 -12 3017 0
-3016 12 3017 0
13 14 -3018 0
-13 -14 -3018 0
13 -14 3018 0
-13 14 3018 0
3018 15 -3019 0
-3018 -15 -3019 0
3018 -15 3019 0
-3018 15 3019 0
17 19 -3020 0
-17 -19 -3020 0
17 -19 3020 0
-17 19 3020 0
3020 20 -3021 0
-3020 -20 -3021 0
3020 -20 3021 0
-3020 20 3021 0
22 23 -3022 0
-22 -23 -3022 0
22 -23 3022 0
-22 23 3022 0
3013 3015 -3023 0
-3013 -3015 -3023 0
3013 -3015 3023 0
-3013 3015 3023 0
3023 3017 -3024 0
-3023 -3017 -3024 0
3023 -3017 3024 0
-3023 3017 3024 0
3013 3019 -3025 0
-3013 -3019 -3025 0
3013 -3019 3025 0
-3013 3019 3025 0
3025 3021 -3026 0
-3025 -3021 -3026 0
3025 -3021 3026 0
-3025 3021 3026 0
3015 3019 -3027 0
-3015 -3019 -3027 0
3015 -3019 3027 0
-3015 3019 3027 0
3027 3022 -3028 0
-3027 -3022 -3028 0
3027 -3022 3028 0
-3027 3022 3028 0
3017 3021 -3029 0
-3017 -3021 -3029 0
3017 -3021 3029 0
-3017 3021 3029 0
3029 3022 -3030 0
-3029 -3022 -3030 0
3029 -3022 3030 0
-3029 3022 3030 0
3024 3026 3028 3030 0
1 2 -3031 0
-1 -2 -3031 0
1 -2 3031 0
-1 2 3031 0
3031 3 -3032 0
-3031 -3 -3032 0
3031 -3 3032 0
-3031 3 3032 0
5 6 -3033 0
-5 -6 -3033 0
5 -6 3033 0
-5 6 3033 0
3033 7 -3034 0
-3033 -7 -3034 0
3033 -7 3034 0
-3033 7 3034 0
9 12 -3035 0
-9 -12 -3035 0
9 -12 3035 0
-9 12 3035 0
13 16 -3036 0
-13 -16 -3036 0
13 -16 3036 0
-13 16 3036 0
18 19 -3037 0
-18 -19 -3037 0
18 -19 3037 0
-18 19 3037 0
3037 20 -3038 0
-3037 -20 -3038 0
3037 -20 3038 0
-3037 20 3038 0
22 23 -3039 0
-22 -23 -3039 0
22 -23 3039 0
-22 23 3039 0
3039 24 -3040 0
-3039 -24 -3040 0
3039 -24 3040 0
-3039 24 3040 0
3032 3034 -3041 0
-3032 -3034 -3041 0
3032 -3034 3041 0
-3032 3034 3041 0
3041 3035 -3042 0
-3041 -3035 -3042 0
3041 -3035 3042 0
-3041 3035 3042 0
3032 3036 -3043 0
-3032 -3036 -3043 0
3032 -3036 3043 0
-3032 3036 3043 0
3043 3038 -3044 0
-3043 -3038 -3044 0
3043 -3038 3044 0
-3043 3038 3044 0
3034 3036 -3045 0
-3034 -3036 -3045 0
3034 -3036 3045 0
-3034 3036 3045 0
3045 3040 -3046 0
-3045 -3040 -3046 0
3045 -3040 3046 0
-3045 3040 3046 0
3035 3038 -3047 0
-3035 -3038 -3047 0
3035 -3038 3047 0
-3035 3038 3047 0
3047 3040 -3048 0
-3047 -3040 -3048 0
3047 -3040 3048 0
-3047 3040 3048 0
3042 3044 3046 3048 0
1 2 -3049 0
-1 -2 -3049 0
1 -2 3049 0
-1 2 3049 0
3049 3 -3050 0
-3049 -3 -3050 0
3049 -3 3050 0
-3049 3 3050 0
5 6 -3051 0
-5 -6 -3051 0
5 -6 3051 0
-5 6 3051 0
3051 7 -3052 0
-3051 -7 -3052 0
3051 -7 3052 0
-3051 7 3052 0
9 11 -3053 0
-9 -11 -3053 0
9 -11 3053 0
-9 11 3053 0
3053 12 -3054 0
-3053 -12 -3054 0
3053 -12 3054 0
-3053 12 3054 0
13 16 -3055 0
-13 -16 -3055 0
13 -16 3055 0
-13 16 3055 0
18 19 -3056 0
-18 -19 -3056 0
18 -19 3056 0
-18 19 3056 0
22 23 -3057 0
-22 -23 -3057 0
22 -23 3057 0
-22 23 3057 0
3050 3052 -3058 0
-3050 -3052 -3058 0
3050 -3052 3058 0
-3050 3052 3058 0
3058 3054 -3059 0
-3058 -3054 -3059 0
3058 -3054 3059 0
-3058 3054 3059 0
3050 3055 -3060 0
-3050 -3055 -3060 0
3050 -3055 3060 0
-3050 3055 3060 0
3060 3056 -3061 0
-3060 -3056 -3061 0
3060 -3056 3061 0
-3060 3056 3061 0
3052 3055 -3062 0
-3052 -3055 -3062 0
3052 -3055 3062 0
-3052 3055 3062 0
3062 3057 -3063 0
-3062 -3057 -3063 0
3062 -3057 3063 0
-3062 3057 3063 0
3054 3056 -3064 0
-3054 -3056 -3064 0
3054 -3056 3064 0
-3054 3056 3064 0
3064 3057 -3065 0
-3064 -3057 -3065 0
3064 -3057 3065 0
-3064 3057 3065 0
3059 3061 3063 3065 0
1 2 -3066 0
-1 -2 -3066 0
1 -2 3066 0
-1 2 3066 0
3066 3 -3067 0
-3066 -3 -3067 0
3066 -3 3067 0
-3066 3 3067 0
5 6 -3068 0
-5 -6 -3068 0
5 -6 3068 0
-5 6 3068 0
3068 7 -3069 0
-3068 -7 -3069 0
3068 -7 3069 0
-3068 7 3069 0
10 11 -3070 0
-10 -11 -3070 0
10 -11 3070 0
-10 11 3070 0
13 16 -3071 0
-13 -16 -3071 0
13 -16 3071 0
-13 16 3071 0
17 18 -3072 0
-17 -18 -3072 0
17 -18 3072 0
-17 18 3072 0
3072 20 -3073 0
-3072 -20 -3073 0
3072 -20 3073 0
-3072 20 3073 0
21 22 -3074 0
-21 -22 -3074 0
21 -22 3074 0
-21 22 3074 0
3074 24 -3075 0
-3074 -24 -3075 0
3074 -24 3075 0
-3074 24 3075 0
3067 3069 -3076 0
-3067 -3069 -3076 0
3067 -3069 3076 0
-3067 3069 3076 0
3076 3070 -3077 0
-3076 -3070 -3077 0
3076 -3070 3077 0
-3076 3070 3077 0
3067 3071 -3078 0
-3067 -3071 -3078 0
3067 -3071 3078 0
-3067 3071 3078 0
3078 3073 -3079 0
-3078 -3073 -3079 0
3078 -3073 3079 0
-3078 3073 3079 0
3069 3071 -3080 0
-3069 -3071 -3080 0
3069 -3071 3080 0
-3069 3071 3080 0
3080 3075 -3081 0
-3080 -3075 -3081 0
3080 -3075 3081 0
-3080 3075 3081 0
3070 3073 -3082 0
-3070 -3073 -3082 0
3070 -3073 3082 0
-3070 3073 3082 0
3082 3075 -3083 0
-3082 -3075 -3083 0
3082 -3075 3083 0
-3082 3075 3083 0
3077 3079 3081 3083 0
1 2 -3084 0
-1 -2 -3084 0
1 -2 3084 0
-1 2 3084 0
3084 3 -3085 0
-3084 -3 -3085 0
3084 -3 3085 0
-3084 3 3085 0
5 6 -3086 0
-5 -6 -3086 0
5 -6 3086 0
-5 6 3086 0
3086 7 -3087 0
-3086 -7 -3087 0
3086 -7 3087 0
-3086 7 3087 0
10 11 -3088 0
-10 -11 -3088 0
10 -11 3088 0
-10 11 3088 0
3088 12 -3089 0
-3088 -12 -3089 0
3088 -12 3089 0
-3088 12 3089 0
13 16 -3090 0
-13 -16 -3090 0
13 -16 3090 0
-13 16 3090 0
17 18 -3091 0
-17 -18 -3091 0
17 -18 3091 0
-17 18 3091 0
3091 19 -3092 0
-3091 -19 -3092 0
3091 -19 3092 0
-3091 19 3092 0
21 22 -3093 0
-21 -22 -3093 0
21 -22 3093 0
-21 22 3093 0
3093 23 -3094 0
-3093 -23 -3094 0
3093 -23 3094 0
-3093 23 3094 0
3085 3087 -3095 0
-3085 -3087 -3095 0
3085 -3087 3095 0
-3085 3087 3095 0
3095 3089 -3096 0
-3095 -3089 -3096 0
3095 -3089 3096 0
-3095 3089 3096 0
3085 3090 -3097 0
-3085 -3090 -3097 0
3085 -3090 3097 0
-3085 3090 3097 0
3097 3092 -3098 0
-3097 -3092 -3098 0
3097 -3092 3098 0
-3097 3092 3098 0
3087 3090 -3099 0
-3087 -3090 -3099 0
3087 -3090 3099 0
-3087 3090 3099 0
3099 3094 -3100 0
-3099 -3094 -3100 0
3099 -3094 3100 0
-3099 3094 3100 0
3089 3092 -3101 0
-3089 -3092 -3101 0
3089 -3092 3101 0
-3089 3092 3101 0
3101 3094 -3102 0
-3101 -3094 -3102 0
3101 -3094 3102 0
-3101 3094 3102 0
3096 3098 3100 3102 0
1 2 -3103 0
-1 -2 -3103 0
1 -2 3103 0
-1 2 3103 0
3103 3 -3104 0
-3103 -3 -3104 0
3103 -3 3104 0
-3103 3 3104 0
5 6 -3105 0
-5 -6 -3105 0
5 -6 3105 0
-5 6 3105 0
3105 7 -3106 0
-3105 -7 -3106 0
3105 -7 3106 0
-3105 7 3106 0
9 10 -3107 0
-9 -10 -3107 0
9 -10 3107 0
-9 10 3107 0
3107 11 -3108 0
-3107 -11 -3108 0
3107 -11 3108 0
-3107 11 3108 0
13 16 -3109 0
-13 -16 -3109 0
13 -16 3109 0
-13 16 3109 0
17 20 -3110 0
-17 -20 -3110 0
17 -20 3110 0
-17 20 3110 0
21 24 -3111 0
-21 -24 -3111 0
21 -24 3111 0
-21 24 3111 0
3104 3106 -3112 0
-3104 -3106 -3112 0
3104 -3106 3112 0
-3104 3106 3112 0
3112 3108 -3113 0
-3112 -3108 -3113 0
3112 -3108 3113 0
-3112 3108 3113 0
3104 3109 -3114 0
-3104 -3109 -3114 0
3104 -3109 3114 0
-3104 3109 3114 0
3114 3110 -3115 0
-3114 -3110 -3115 0
3114 -3110 3115 0
-3114 3110 3115 0
3106 3109 -3116 0
-3106 -3109 -3116 0
3106 -3109 3116 0
-3106 3109 3116 0
3116 3111 -3117 0
-3116 -3111 -3117 0
3116 -3111 3117 0
-3116 3111 3117 0
3108 3110 -3118 0
-3108 -3110 -3118 0
3108 -3110 3118 0
-3108 3110 3118 0
3118 3111 -3119 0
-3118 -3111 -3119 0
3118 -3111 3119 0
-3118 3111 3119 0
3113 3115 3117 3119 0
1 2 -3120 0
-1 -2 -3120 0
1 -2 3120 0
-1 2 3120 0
3120 3 -3121 0
-3120 -3 -3121 0
3120 -3 3121 0
-3120 3 3121 0
5 6 -3122 0
-5 -6 -3122 0
5 -6 3122 0
-5 6 3122 0
3122 7 -3123 0
-3122 -7 -3123 0
3122 -7 3123 0
-3122 7 3123 0
9 10 -3124 0
-9 -10 -3124 0
9 -10 3124 0
-9 10 3124 0
3124 12 -3125 0
-3124 -12 -3125 0
3124 -12 3125 0
-3124 12 3125 0
13 16 -3126 0
-13 -16 -3126 0
13 -16 3126 0
-13 16 3126 0
17 19 -3127 0
-17 -19 -3127 0
17 -19 3127 0
-17 19 3127 0
3127 20 -3128 0
-3127 -20 -3128 0
3127 -20 3128 0
-3127 20 3128 0
21 23 -3129 0
-21 -23 -3129 0
21 -23 3129 0
-21 23 3129 0
3129 24 -3130 0
-3129 -24 -3130 0
3129 -24 3130 0
-3129 24 3130 0
3121 3123 -3131 0
-3121 -3123 -3131 0
3121 -3123 3131 0
-3121 3123 3131 0
3131 3125 -3132 0
-3131 -3125 -3132 0
3131 -3125 3132 0
-3131 3125 3132 0
3121 3126 -3133 0
-3121 -3126 -3133 0
3121 -3126 3133 0
-3121 3126 3133 0
3133 3128 -3134 0
-3133 -3128 -3134 0
3133 -3128 3134 0
-3133 3128 3134 0
3123 3126 -3135 0
-3123 -3126 -3135 0
3123 -3126 3135 0
-3123 3126 3135 0
3135 3130 -3136 0
-3135 -3130 -3136 0
3135 -3130 3136 0
-3135 3130 3136 0
3125 3128 -3137 0
-3125 -3128 -3137 0
3125 -3128 3137 0
-3125 3128 3137 0
3137 3130 -3138 0
-3137 -3130 -3138 0
3137 -3130 3138 0
-3137 3130 3138 0
3132 3134 3136 3138 0
1 2 -3139 0
-1 -2 -3139 0
1 -2 3139 0
-1 2 3139 0
3139 3 -3140 0
-3139 -3 -3140 0
3139 -3 3140 0
-3139 3 3140 0
5 6 -3141 0
-5 -6 -3141 0
5 -6 3141 0
-5 6 3141 0
3141 8 -3142 0
-3141 -8 -3142 0
3141 -8 3142 0
-3141 8 3142 0
9 12 -3143 0
-9 -12 -3143 0
9 -12 3143 0
-9 12 3143 0
13 15 -3144 0
-13 -15 -3144 0
13 -15 3144 0
-13 15 3144 0
3144 16 -3145 0
-3144 -16 -3145 0
3144 -16 3145 0
-3144 16 3145 0
18 19 -3146 0
-18 -19 -3146 0
18 -19 3146 0
-18 19 3146 0
3146 20 -3147 0
-3146 -20 -3147 0
3146 -20 3147 0
-3146 20 3147 0
21 22 -3148 0
-21 -22 -3148 0
21 -22 3148 0
-21 22 3148 0
3148 24 -3149 0
-3148 -24 -3149 0
3148 -24 3149 0
-3148 24 3149 0
3140 3142 -3150 0
-3140 -3142 -3150 0
3140 -3142 3150 0
-3140 3142 3150 0
3150 3143 -3151 0
-3150 -3143 -3151 0
3150 -3143 3151 0
-3150 3143 3151 0
3140 3145 -3152 0
-3140 -3145 -3152 0
3140 -3145 3152 0
-3140 3145 3152 0
3152 3147 -3153 0
-3152 -3147 -3153 0
3152 -3147 3153 0
-3152 3147 3153 0
3142 3145 -3154 0
-3142 -3145 -3154 0
3142 -3145 3154 0
-3142 3145 3154 0
3154 3149 -3155 0
-3154 -3149 -3155 0
3154 -3149 3155 0
-3154 3149 3155 0
3143 3147 -3156 0
-3143 -3147 -3156 0
3143 -3147 3156 0
-3143 3147 3156 0
3156 3149 -3157 0
-3156 -3149 -3157 0
3156 -3149 3157 0
-3156 3149 3157 0
3151 3153 3155 3157 0
1 2 -3158 0
-1 -2 -3158 0
1 -2 3158 0
-1 2 3158 0
3158 3 -3159 0
-3158 -3 -3159 0
3158 -3 3159 0
-3158 3 3159 0
5 6 -3160 0
-5 -6 -3160 0
5 -6 3160 0
-5 6 3160 0
3160 8 -3161 0
-3160 -8 -3161 0
3160 -8 3161 0
-3160 8 3161 0
9 11 -3162 0
-9 -11 -3162 0
9 -11 3162 0
-9 11 3162 0
3162 12 -3163 0
-3162 -12 -3163 0
3162 -12 3163 0
-3162 12 3163 0
13 15 -3164 0
-13 -15 -3164 0
13 -15 3164 0
-13 15 3164 0
3164 16 -3165 0
-3164 -16 -3165 0
3164 -16 3165 0
-3164 16 3165 0
18 19 -3166 0
-18 -19 -3166 0
18 -19 3166 0
-18 19 3166 0
21 22 -3167 0
-21 -22 -3167 0
21 -22 3167 0
-21 22 3167 0
3167 23 -3168 0
-3167 -23 -3168 0
3167 -23 3168 0
-3167 23 3168 0
3159 3161 -3169 0
-3159 -3161 -3169 0
3159 -3161 3169 0
-3159 3161 3169 0
3169 3163 -3170 0
-3169 -3163 -3170 0
3169 -3163 3170 0
-3169 3163 3170 0
3159 3165 -3171 0
-3159 -3165 -3171 0
3159 -3165 3171 0
-3159 3165 3171 0
3171 3166 -3172 0
-3171 -3166 -3172 0
3171 -3166 3172 0
-3171 3166 3172 0
3161 3165 -3173 0
-3161 -3165 -3173 0
3161 -3165 3173 0
-3161 3165 3173 0
3173 3168 -3174 0
-3173 -3168 -3174 0
3173 -3168 3174 0
-3173 3168 3174 0
3163 3166 -3175 0
-3163 -3166 -3175 0
3163 -3166 3175 0
-3163 3166 3175 0
3175 3168 -3176 0
-3175 -3168 -3176 0
3175 -3168 3176 0
-3175 3168 3176 0
3170 3172 3174 3176 0
1 2 -3177 0
-1 -2 -3177 0
1 -2 3177 0
-1 2 3177 0
3177 3 -3178 0
-3177 -3 -3178 0
3177 -3 3178 0
-3177 3 3178 0
5 6 -3179 0
-5 -6 -3179 0
5 -6 3179 0
-5 6 3179 0
3179 8 -3180 0
-3179 -8 -3180 0
3179 -8 3180 0
-3179 8 3180 0
10 11 -3181 0
-10 -11 -3181 0
10 -11 3181 0
-10 11 3181 0
13 15 -3182 0
-13 -15 -3182 0
13 -15 3182 0
-13 15 3182 0
3182 16 -3183 0
-3182 -16 -3183 0
3182 -16 3183 0
-3182 16 3183 0
17 18 -3184 0
-17 -18 -3184 0
17 -18 3184 0
-17 18 3184 0
3184 20 -3185 0
-3184 -20 -3185 0
3184 -20 3185 0
-3184 20 3185 0
22 23 -3186 0
-22 -23 -3186 0
22 -23 3186 0
-22 23 3186 0
3186 24 -3187 0
-3186 -24 -3187 0
3186 -24 3187 0
-3186 24 3187 0
3178 3180 -3188 0
-3178 -3180 -3188 0
3178 -3180 3188 0
-3178 3180 3188 0
3188 3181 -3189 0
-3188 -3181 -3189 0
3188 -3181 3189 0
-3188 3181 3189 0
3178 3183 -3190 0
-3178 -3183 -3190 0
3178 -3183 3190 0
-3178 3183 3190 0
3190 3185 -3191 0
-3190 -3185 -3191 0
3190 -3185 3191 0
-3190 3185 3191 0
3180 3183 -3192 0
-3180 -3183 -3192 0
3180 -3183 3192 0
-3180 3183 3192 0
3192 3187 -3193 0
-3192 -3187 -3193 0
3192 -3187 3193 0
-3192 3187 3193 0
3181 3185 -3194 0
-3181 -3185 -3194 0
3181 -3185 3194 0
-3181 3185 3194 0
3194 3187 -3195 0
-3194 -3187 -3195 0
3194 -3187 3195 0
-3194 3187 3195 0
3189 3191 3193 3195 0
1 2 -3196 0
-1 -2 -3196 0
1 -2 3196 0
-1 2 3196 0
3196 3 -3197 0
-3196 -3 -3197 0
3196 -3 3197 0
-3196 3 3197 0
5 6 -3198 0
-5 -6 -3198 0
5 -6 3198 0
-5 6 3198 0
3198 8 -3199 0
-3198 -8 -3199 0
3198 -8 3199 0
-3198 8 3199 0
10 11 -3200 0
-10 -11 -3200 0
10 -11 3200 0
-10 11 3200 0
3200 12 -3201 0
-3200 -12 -3201 0
3200 -12 3201 0
-3200 12 3201 0
13 15 -3202 0
-13 -15 -3202 0
13 -15 3202 0
-13 15 3202 0
3202 16 -3203 0
-3202 -16 -3203 0
3202 -16 3203 0
-3202 16 3203 0
17 18 -3204 0
-17 -18 -3204 0
17 -18 3204 0
-17 18 3204 0
3204 19 -3205 0
-3204 -19 -3205 0
3204 -19 3205 0
-3204 19 3205 0
22 23 -3206 0
-22 -23 -3206 0
22 -23 3206 0
-22 23 3206 0
3197 3199 -3207 0
-3197 -3199 -3207 0
3197 -3199 3207 0
-3197 3199 3207 0
3207 3201 -3208 0
-3207 -3201 -3208 0
3207 -3201 3208 0
-3207 3201 3208 0
3197 3203 -3209 0
-3197 -3203 -3209 0
3197 -3203 3209 0
-3197 3203 3209 0
3209 3205 -3210 0
-3209 -3205 -3210 0
3209 -3205 3210 0
-3209 3205 3210 0
3199 3203 -3211 0
-3199 -3203 -3211 0
3199 -3203 3211 0
-3199 3203 3211 0
3211 3206 -3212 0
-3211 -3206 -3212 0
3211 -3206 3212 0
-3211 3206 3212 0
3201 3205 -3213 0
-3201 -3205 -3213 0
3201 -3205 3213 0
-3201 3205 3213 0
3213 3206 -3214 0
-3213 -3206 -3214 0
3213 -3206 3214 0
-3213 3206 3214 0
3208 3210 3212 3214 0
1 2 -3215 0
-1 -2 -3215 0
1 -2 3215 0
-1 2 3215 0
3215 3 -3216 0
-3215 -3 -3216 0
3215 -3 3216 0
-3215 3 3216 0
5 6 -3217 0
-5 -6 -3217 0
5 -6 3217 0
-5 6 3217 0
3217 8 -3218 0
-3217 -8 -3218 0
3217 -8 3218 0
-3217 8 3218 0
9 10 -3219 0
-9 -10 -3219 0
9 -10 3219 0
-9 10 3219 0
3219 11 -3220 0
-3219 -11 -3220 0
3219 -11 3220 0
-3219 11 3220 0
13 15 -3221 0
-13 -15 -3221 0
13 -15 3221 0
-13 15 3221 0
3221 16 -3222 0
-3221 -16 -3222 0
3221 -16 3222 0
-3221 16 3222 0
17 20 -3223 0
-17 -20 -3223 0
17 -20 3223 0
-17 20 3223 0
21 23 -3224 0
-21 -23 -3224 0
21 -23 3224 0
-21 23 3224 0
3224 24 -3225 0
-3224 -24 -3225 0
3224 -24 3225 0
-3224 24 3225 0
3216 3218 -3226 0
-3216 -3218 -3226 0
3216 -3218 3226 0
-3216 3218 3226 0
3226 3220 -3227 0
-3226 -3220 -3227 0
3226 -3220 3227 0
-3226 3220 3227 0
3216 3222 -3228 0
-3216 -3222 -3228 0
3216 -3222 3228 0
-3216 3222 3228 0
3228 3223 -3229 0
-3228 -3223 -3229 0
3228 -3223 3229 0
-3228 3223 3229 0
3218 3222 -3230 0
-3218 -3222 -3230 0
3218 -3222 3230 0
-3218 3222 3230 0
3230 3225 -3231 0
-3230 -3225 -3231 0
3230 -3225 3231 0
-3230 3225 3231 0
3220 3223 -3232 0
-3220 -3223 -3232 0
3220 -3223 3232 0
-3220 3223 3232 0
3232 3225 -3233 0
-3232 -3225 -3233 0
3232 -3225 3233 0
-3232 3225 3233 0
3227 3229 3231 3233 0
1 2 -3234 0
-1 -2 -3234 0
1 -2 3234 0
-1 2 3234 0
3234 3 -3235 0
-3234 -3 -3235 0
3234 -3 3235 0
-3234 3 3235 0
5 6 -3236 0
-5 -6 -3236 0
5 -6 3236 0
-5 6 3236 0
3236 8 -3237 0
-3236 -8 -3237 0
3236 -8 3237 0
-3236 8 3237 0
9 10 -3238 0
-9 -10 -3238 0
9 -10 3238 0
-9 10 3238 0
3238 12 -3239 0
-3238 -12 -3239 0
3238 -12 3239 0
-3238 12 3239 0
13 15 -3240 0
-13 -15 -3240 0
13 -15 3240 0
-13 15 3240 0
3240 16 -3241 0
-3240 -16 -3241 0
3240 -16 3241 0
-3240 16 3241 0
17 19 -3242 0
-17 -19 -3242 0
17 -19 3242 0
-17 19 3242 0
3242 20 -3243 0
-3242 -20 -3243 0
3242 -20 3243 0
-3242 20 3243 0
21 24 -3244 0
-21 -24 -3244 0
21 -24 3244 0
-21 24 3244 0
3235 3237 -3245 0
-3235 -3237 -3245 0
3235 -3237 3245 0
-3235 3237 3245 0
3245 3239 -3246 0
-3245 -3239 -3246 0
3245 -3239 3246 0
-3245 3239 3246 0
3235 3241 -3247 0
-3235 -3241 -3247 0
3235 -3241 3247 0
-3235 3241 3247 0
3247 3243 -3248 0
-3247 -3243 -3248 0
3247 -3243 3248 0
-3247 3243 3248 0
3237 3241 -3249 0
-3237 -3241 -3249 0
3237 -3241 3249 0
-3237 3241 3249 0
3249 3244 -3250 0
-3249 -3244 -3250 0
3249 -3244 3250 0
-3249 3244 3250 0
3239 3243 -3251 0
-3239 -3243 -3251 0
3239 -3243 3251 0
-3239 3243 3251 0
3251 3244 -3252 0
-3251 -3244 -3252 0
3251 -3244 3252 0
-3251 3244 3252 0
3246 3248 3250 3252 0
1 2 -3253 0
-1 -2 -3253 0
1 -2 3253 0
-1 2 3253 0
3253 4 -3254 0
-3253 -4 -3254 0
3253 -4 3254 0
-3253 4 3254 0
5 8 -3255 0
-5 -8 -3255 0
5 -8 3255 0
-5 8 3255 0
9 12 -3256 0
-9 -12 -3256 0
9 -12 3256 0
-9 12 3256 0
13 14 -3257 0
-13 -14 -3257 0
13 -14 3257 0
-13 14 3257 0
3257 16 -3258 0
-3257 -16 -3258 0
3257 -16 3258 0
-3257 16 3258 0
17 18 -3259 0
-17 -18 -3259 0
17 -18 3259 0
-17 18 3259 0
3259 20 -3260 0
-3259 -20 -3260 0
3259 -20 3260 0
-3259 20 3260 0
21 24 -3261 0
-21 -24 -3261 0
21 -24 3261 0
-21 24 3261 0
3254 3255 -3262 0
-3254 -3255 -3262 0
3254 -3255 3262 0
-3254 3255 3262 0
3262 3256 -3263 0
-3262 -3256 -3263 0
3262 -3256 3263 0
-3262 3256 3263 0
3254 3258 -3264 0
-3254 -3258 -3264 0
3254 -3258 3264 0
-3254 3258 3264 0
3264 3260 -3265 0
-3264 -3260 -3265 0
3264 -3260 3265 0
-3264 3260 3265 0
3255 3258 -3266 0
-3255 -3258 -3266 0
3255 -3258 3266 0
-3255 3258 3266 0
3266 3261 -3267 0
-3266 -3261 -3267 0
3266 -3261 3267 0
-3266 3261 3267 0
3256 3260 -3268 0
-3256 -3260 -3268 0
3256 -3260 3268 0
-3256 3260 3268 0
3268 3261 -3269 0
-3268 -3261 -3269 0
3268 -3261 3269 0
-3268 3261 3269 0
3263 3265 3267 3269 0
1 2 -3270 0
-1 -2 -3270 0
1 -2 3270 0
-1 2 3270 0
3270 4 -3271 0
-3270 -4 -3271 0
3270 -4 3271 0
-3270 4 3271 0
5 8 -3272 0
-5 -8 -3272 0
5 -8 3272 0
-5 8 3272 0
9 11 -3273 0
-9 -11 -3273 0
9 -11 3273 0
-9 11 3273 0
3273 12 -3274 0
-3273 -12 -3274 0
3273 -12 3274 0
-3273 12 3274 0
13 14 -3275 0
-13 -14 -3275 0
13 -14 3275 0
-13 14 3275 0
3275 16 -3276 0
-3275 -16 -3276 0
3275 -16 3276 0
-3275 16 3276 0
17 18 -3277 0
-17 -18 -3277 0
17 -18 3277 0
-17 18 3277 0
3277 19 -3278 0
-3277 -19 -3278 0
3277 -19 3278 0
-3277 19 3278 0
21 23 -3279 0
-21 -23 -3279 0
21 -23 3279 0
-21 23 3279 0
3279 24 -3280 0
-3279 -24 -3280 0
3279 -24 3280 0
-3279 24 3280 0
3271 3272 -3281 0
-3271 -3272 -3281 0
3271 -3272 3281 0
-3271 3272 3281 0
3281 3274 -3282 0
-3281 -3274 -3282 0
3281 -3274 3282 0
-3281 3274 3282 0
3271 3276 -3283 0
-3271 -3276 -3283 0
3271 -3276 3283 0
-3271 3276 3283 0
3283 3278 -3284 0
-3283 -3278 -3284 0
3283 -3278 3284 0
-3283 3278 3284 0
3272 3276 -3285 0
-3272 -3276 -3285 0
3272 -3276 3285 0
-3272 3276 3285 0
3285 3280 -3286 0
-3285 -3280 -3286 0
3285 -3280 3286 0
-3285 3280 3286 0
3274 3278 -3287 0
-3274 -3278 -3287 0
3274 -3278 3287 0
-3274 3278 3287 0
3287 3280 -3288 0
-3287 -3280 -3288 0
3287 -3280 3288 0
-3287 3280 3288 0
3282 3284 3286 3288 0
1 2 -3289 0
-1 -2 -3289 0
1 -2 3289 0
-1 2 3289 0
3289 4 -3290 0
-3289 -4 -3290 0
3289 -4 3290 0
-3289 4 3290 0
5 8 -3291 0
-5 -8 -3291 0
5 -8 3291 0
-5 8 3291 0
10 11 -3292 0
-10 -11 -3292 0
10 -11 3292 0
-10 11 3292 0
13 14 -3293 0
-13 -14 -3293 0
13 -14 3293 0
-13 14 3293 0
3293 16 -3294 0
-3293 -16 -3294 0
3293 -16 3294 0
-3293 16 3294 0
18 19 -3295 0
-18 -19 -3295 0
18 -19 3295 0
-18 19 3295 0
3295 20 -3296 0
-3295 -20 -3296 0
3295 -20 3296 0
-3295 20 3296 0
22 23 -3297 0
-22 -23 -3297 0
22 -23 3297 0
-22 23 3297 0
3290 3291 -3298 0
-3290 -3291 -3298 0
3290 -3291 3298 0
-3290 3291 3298 0
3298 3292 -3299 0
-3298 -3292 -3299 0
3298 -3292 3299 0
-3298 3292 3299 0
3290 3294 -3300 0
-3290 -3294 -3300 0
3290 -3294 3300 0
-3290 3294 3300 0
3300 3296 -3301 0
-3300 -3296 -3301 0
3300 -3296 3301 0
-3300 3296 3301 0
3291 3294 -3302 0
-3291 -3294 -3302 0
3291 -3294 3302 0
-3291 3294 3302 0
3302 3297 -3303 0
-3302 -3297 -3303 0
3302 -3297 3303 0
-3302 3297 3303 0
3292 3296 -3304 0
-3292 -3296 -3304 0
3292 -3296 3304 0
-3292 3296 3304 0
3304 3297 -3305 0
-3304 -3297 -3305 0
3304 -3297 3305 0
-3304 3297 3305 0
3299 3301 3303 3305 0
1 2 -3306 0
-1 -2 -3306 0
1 -2 3306 0
-1 2 3306 0
3306 4 -3307 0
-3306 -4 -3307 0
3306 -4 3307 0
-3306 4 3307 0
5 8 -3308 0
-5 -8 -3308 0
5 -8 3308 0
-5 8 3308 0
10 11 -3309 0
-10 -11 -3309 0
10 -11 3309 0
-10 11 3309 0
3309 12 -3310 0
-3309 -12 -3310 0
3309 -12 3310 0
-3309 12 3310 0
13 14 -3311 0
-13 -14 -3311 0
13 -14 3311 0
-13 14 3311 0
3311 16 -3312 0
-3311 -16 -3312 0
3311 -16 3312 0
-3311 16 3312 0
18 19 -3313 0
-18 -19 -3313 0
18 -19 3313 0
-18 19 3313 0
22 23 -3314 0
-22 -23 -3314 0
22 -23 3314 0
-22 23 3314 0
3314 24 -3315 0
-3314 -24 -3315 0
3314 -24 3315 0
-3314 24 3315 0
3307 3308 -3316 0
-3307 -3308 -3316 0
3307 -3308 3316 0
-3307 3308 3316 0
3316 3310 -3317 0
-3316 -3310 -3317 0
3316 -3310 3317 0
-3316 3310 3317 0
3307 3312 -3318 0
-3307 -3312 -3318 0
3307 -3312 3318 0
-3307 3312 3318 0
3318 3313 -3319 0
-3318 -3313 -3319 0
3318 -3313 3319 0
-3318 3313 3319 0
3308 3312 -3320 0
-3308 -3312 -3320 0
3308 -3312 3320 0
-3308 3312 3320 0
3320 3315 -3321 0
-3320 -3315 -3321 0
3320 -3315 3321 0
-3320 3315 3321 0
3310 3313 -3322 0
-3310 -3313 -3322 0
3310 -3313 3322 0
-3310 3313 3322 0
3322 3315 -3323 0
-3322 -3315 -3323 0
3322 -3315 3323 0
-3322 3315 3323 0
3317 3319 3321 3323 0
1 2 -3324 0
-1 -2 -3324 0
1 -2 3324 0
-1 2 3324 0
3324 4 -3325 0
-3324 -4 -3325 0
3324 -4 3325 0
-3324 4 3325 0
5 8 -3326 0
-5 -8 -3326 0
5 -8 3326 0
-5 8 3326 0
9 10 -3327 0
-9 -10 -3327 0
9 -10 3327 0
-9 10 3327 0
3327 11 -3328 0
-3327 -11 -3328 0
3327 -11 3328 0
-3327 11 3328 0
13 14 -3329 0
-13 -14 -3329 0
13 -14 3329 0
-13 14 3329 0
3329 16 -3330 0
-3329 -16 -3330 0
3329 -16 3330 0
-3329 16 3330 0
17 19 -3331 0
-17 -19 -3331 0
17 -19 3331 0
-17 19 3331 0
3331 20 -3332 0
-3331 -20 -3332 0
3331 -20 3332 0
-3331 20 3332 0
21 22 -3333 0
-21 -22 -3333 0
21 -22 3333 0
-21 22 3333 0
3333 23 -3334 0
-3333 -23 -3334 0
3333 -23 3334 0
-3333 23 3334 0
3325 3326 -3335 0
-3325 -3326 -3335 0
3325 -3326 3335 0
-3325 3326 3335 0
3335 3328 -3336 0
-3335 -3328 -3336 0
3335 -3328 3336 0
-3335 3328 3336 0
3325 3330 -3337 0
-3325 -3330 -3337 0
3325 -3330 3337 0
-3325 3330 3337 0
3337 3332 -3338 0
-3337 -3332 -3338 0
3337 -3332 3338 0
-3337 3332 3338 0
3326 3330 -3339 0
-3326 -3330 -3339 0
3326 -3330 3339 0
-3326 3330 3339 0
3339 3334 -3340 0
-3339 -3334 -3340 0
3339 -3334 3340 0
-3339 3334 3340 0
3328 3332 -3341 0
-3328 -3332 -3341 0
3328 -3332 3341 0
-3328 3332 3341 0
3341 3334 -3342 0
-3341 -3334 -3342 0
3341 -3334 3342 0
-3341 3334 3342 0
3336 3338 3340 3342 0
1 2 -3343 0
-1 -2 -3343 0
1 -2 3343 0
-1 2 3343 0
3343 4 -3344 0
-3343 -4 -3344 0
3343 -4 3344 0
-3343 4 3344 0
5 8 -3345 0
-5 -8 -3345 0
5 -8 3345 0
-5 8 3345 0
9 10 -3346 0
-9 -10 -3346 0
9 -10 3346 0
-9 10 3346 0
3346 12 -3347 0
-3346 -12 -3347 0
3346 -12 3347 0
-3346 12 3347 0
13 14 -3348 0
-13 -14 -3348 0
13 -14 3348 0
-13 14 3348 0
3348 16 -3349 0
-3348 -16 -3349 0
3348 -16 3349 0
-3348 16 3349 0
17 20 -3350 0
-17 -20 -3350 0
17 -20 3350 0
-17 20 3350 0
21 22 -3351 0
-21 -22 -3351 0
21 -22 3351 0
-21 22 3351 0
3351 24 -3352 0
-3351 -24 -3352 0
3351 -24 3352 0
-3351 24 3352 0
3344 3345 -3353 0
-3344 -3345 -3353 0
3344 -3345 3353 0
-3344 3345 3353 0
3353 3347 -3354 0
-3353 -3347 -3354 0
3353 -3347 3354 0
-3353 3347 3354 0
3344 3349 -3355 0
-3344 -3349 -3355 0
3344 -3349 3355 0
-3344 3349 3355 0
3355 3350 -3356 0
-3355 -3350 -3356 0
3355 -3350 3356 0
-3355 3350 3356 0
3345 3349 -3357 0
-3345 -3349 -3357 0
3345 -3349 3357 0
-3345 3349 3357 0
3357 3352 -3358 0
-3357 -3352 -3358 0
3357 -3352 3358 0
-3357 3352 3358 0
3347 3350 -3359 0
-3347 -3350 -3359 0
3347 -3350 3359 0
-3347 3350 3359 0
3359 3352 -3360 0
-3359 -3352 -3360 0
3359 -3352 3360 0
-3359 3352 3360 0
3354 3356 3358 3360 0
1 2 -3361 0
-1 -2 -3361 0
1 -2 3361 0
-1 2 3361 0
3361 4 -3362 0
-3361 -4 -3362 0
3361 -4 3362 0
-3361 4 3362 0
5 7 -3363 0
-5 -7 -3363 0
5 -7 3363 0
-5 7 3363 0
3363 8 -3364 0
-3363 -8 -3364 0
3363 -8 3364 0
-3363 8 3364 0
9 12 -3365 0
-9 -12 -3365 0
9 -12 3365 0
-9 12 3365 0
13 14 -3366 0
-13 -14 -3366 0
13 -14 3366 0
-13 14 3366 0
3366 15 -3367 0
-3366 -15 -3367 0
3366 -15 3367 0
-3366 15 3367 0
17 18 -3368 0
-17 -18 -3368 0
17 -18 3368 0
-17 18 3368 0
3368 20 -3369 0
-3368 -20 -3369 0
3368 -20 3369 0
-3368 20 3369 0
21 23 -3370 0
-21 -23 -3370 0
21 -23 3370 0
-21 23 3370 0
3370 24 -3371 0
-3370 -24 -3371 0
3370 -24 3371 0
-3370 24 3371 0
3362 3364 -3372 0
-3362 -3364 -3372 0
3362 -3364 3372 0
-3362 3364 3372 0
3372 3365 -3373 0
-3372 -3365 -3373 0
3372 -3365 3373 0
-3372 3365 3373 0
3362 3367 -3374 0
-3362 -3367 -3374 0
3362 -3367 3374 0
-3362 3367 3374 0
3374 3369 -3375 0
-3374 -3369 -3375 0
3374 -3369 3375 0
-3374 3369 3375 0
3364 3367 -3376 0
-3364 -3367 -3376 0
3364 -3367 3376 0
-3364 3367 3376 0
3376 3371 -3377 0
-3376 -3371 -3377 0
3376 -3371 3377 0
-3376 3371 3377 0
3365 3369 -3378 0
-3365 -3369 -3378 0
3365 -3369 3378 0
-3365 3369 3378 0
3378 3371 -3379 0
-3378 -3371 -3379 0
3378 -3371 3379 0
-3378 3371 3379 0
3373 3375 3377 3379 0
1 2 -3380 0
-1 -2 -3380 0
1 -2 3380 0
-1 2 3380 0
3380 4 -3381 0
-3380 -4 -3381 0
3380 -4 3381 0
-3380 4 3381 0
5 7 -3382 0
-5 -7 -3382 0
5 -7 3382 0
-5 7 3382 0
3382 8 -3383 0
-3382 -8 -3383 0
3382 -8 3383 0
-3382 8 3383 0
9 11 -3384 0
-9 -11 -3384 0
9 -11 3384 0
-9 11 3384 0
3384 12 -3385 0
-3384 -12 -3385 0
3384 -12 3385 0
-3384 12 3385 0
13 14 -3386 0
-13 -14 -3386 0
13 -14 3386 0
-13 14 3386 0
3386 15 -3387 0
-3386 -15 -3387 0
3386 -15 3387 0
-3386 15 3387 0
17 18 -3388 0
-17 -18 -3388 0
17 -18 3388 0
-17 18 3388 0
3388 19 -3389 0
-3388 -19 -3389 0
3388 -19 3389 0
-3388 19 3389 0
21 24 -3390 0
-21 -24 -3390 0
21 -24 3390 0
-21 24 3390 0
3381 3383 -3391 0
-3381 -3383 -3391 0
3381 -3383 3391 0
-3381 3383 3391 0
3391 3385 -3392 0
-3391 -3385 -3392 0
3391 -3385 3392 0
-3391 3385 3392 0
3381 3387 -3393 0
-3381 -3387 -3393 0
3381 -3387 3393 0
-3381 3387 3393 0
3393 3389 -3394 0
-3393 -3389 -3394 0
3393 -3389 3394 0
-3393 3389 3394 0
3383 3387 -3395 0
-3383 -3387 -3395 0
3383 -3387 3395 0
-3383 3387 3395 0
3395 3390 -3396 0
-3395 -3390 -3396 0
3395 -3390 3396 0
-3395 3390 3396 0
3385 3389 -3397 0
-3385 -3389 -3397 0
3385 -3389 3397 0
-3385 3389 3397 0
3397 3390 -3398 0
-3397 -3390 -3398 0
3397 -3390 3398 0
-3397 3390 3398 0
3392 3394 3396 3398 0
1 2 -3399 0
-1 -2 -3399 0
1 -2 3399 0
-1 2 3399 0
3399 4 -3400 0
-3399 -4 -3400 0
3399 -4 3400 0
-3399 4 3400 0
5 7 -3401 0
-5 -7 -3401 0
5 -7 3401 0
-5 7 3401 0
3401 8 -3402 0
-3401 -8 -3402 0
3401 -8 3402 0
-3401 8 3402 0
10 11 -3403 0
-10 -11 -3403 0
10 -11 3403 0
-10 11 3403 0
13 14 -3404 0
-13 -14 -3404 0
13 -14 3404 0
-13 14 3404 0
3404 15 -3405 0
-3404 -15 -3405 0
3404 -15 3405 0
-3404 15 3405 0
18 19 -3406 0
-18 -19 -3406 0
18 -19 3406 0
-18 19 3406 0
3406 20 -3407 0
-3406 -20 -3407 0
3406 -20 3407 0
-3406 20 3407 0
21 22 -3408 0
-21 -22 -3408 0
21 -22 3408 0
-21 22 3408 0
3408 23 -3409 0
-3408 -23 -3409 0
3408 -23 3409 0
-3408 23 3409 0
3400 3402 -3410 0
-3400 -3402 -3410 0
3400 -3402 3410 0
-3400 3402 3410 0
3410 3403 -3411 0
-3410 -3403 -3411 0
3410 -3403 3411 0
-3410 3403 3411 0
3400 3405 -3412 0
-3400 -3405 -3412 0
3400 -3405 3412 0
-3400 3405 3412 0
3412 3407 -3413 0
-3412 -3407 -3413 0
3412 -3407 3413 0
-3412 3407 3413 0
3402 3405 -3414 0
-3402 -3405 -3414 0
3402 -3405 3414 0
-3402 3405 3414 0
3414 3409 -3415 0
-3414 -3409 -3415 0
3414 -3409 3415 0
-3414 3409 3415 0
3403 3407 -3416 0
-3403 -3407 -3416 0
3403 -3407 3416 0
-3403 3407 3416 0
3416 3409 -3417 0
-3416 -3409 -3417 0
3416 -3409 3417 0
-3416 3409 3417 0
3411 3413 3415 3417 0
1 2 -3418 0
-1 -2 -3418 0
1 -2 3418 0
-1 2 3418 0
3418 4 -3419 0
-3418 -4 -3419 0
3418 -4 3419 0
-3418 4 3419 0
5 7 -3420 0
-5 -7 -3420 0
5 -7 3420 0
-5 7 3420 0
3420 8 -3421 0
-3420 -8 -3421 0
3420 -8 3421 0
-3420 8 3421 0
10 11 -3422 0
-10 -11 -3422 0
10 -11 3422 0
-10 11 3422 0
3422 12 -3423 0
-3422 -12 -3423 0
3422 -12 3423 0
-3422 12 3423 0
13 14 -3424 0
-13 -14 -3424 0
13 -14 3424 0
-13 14 3424 0
3424 15 -3425 0
-3424 -15 -3425 0
3424 -15 3425 0
-3424 15 3425 0
18 19 -3426 0
-18 -19 -3426 0
18 -19 3426 0
-18 19 3426 0
21 22 -3427 0
-21 -22 -3427 0
21 -22 3427 0
-21 22 3427 0
3427 24 -3428 0
-3427 -24 -3428 0
3427 -24 3428 0
-3427 24 3428 0
3419 3421 -3429 0
-3419 -3421 -3429 0
3419 -3421 3429 0
-3419 3421 3429 0
3429 3423 -3430 0
-3429 -3423 -3430 0
3429 -3423 3430 0
-3429 3423 3430 0
3419 3425 -3431 0
-3419 -3425 -3431 0
3419 -3425 3431 0
-3419 3425 3431 0
3431 3426 -3432 0
-3431 -3426 -3432 0
3431 -3426 3432 0
-3431 3426 3432 0
3421 3425 -3433 0
-3421 -3425 -3433 0
3421 -3425 3433 0
-3421 3425 3433 0
3433 3428 -3434 0
-3433 -3428 -3434 0
3433 -3428 3434 0
-3433 3428 3434 0
3423 3426 -3435 0
-3423 -3426 -3435 0
3423 -3426 3435 0
-3423 3426 3435 0
3435 3428 -3436 0
-3435 -3428 -3436 0
3435 -3428 3436 0
-3435 3428 3436 0
3430 3432 3434 3436 0
1 2 -3437 0
-1 -2 -3437 0
1 -2 3437 0
-1 2 3437 0
3437 4 -3438 0
-3437 -4 -3438 0
3437 -4 3438 0
-3437 4 3438 0
5 7 -3439 0
-5 -7 -3439 0
5 -7 3439 0
-5 7 3439 0
3439 8 -3440 0
-3439 -8 -3440 0
3439 -8 3440 0
-3439 8 3440 0
9 10 -3441 0
-9 -10 -3441 0
9 -10 3441 0
-9 10 3441 0
3441 11 -3442 0
-3441 -11 -3442 0
3441 -11 3442 0
-3441 11 3442 0
13 14 -3443 0
-13 -14 -3443 0
13 -14 3443 0
-13 14 3443 0
3443 15 -3444 0
-3443 -15 -3444 0
3443 -15 3444 0
-3443 15 3444 0
17 19 -3445 0
-17 -19 -3445 0
17 -19 3445 0
-17 19 3445 0
3445 20 -3446 0
-3445 -20 -3446 0
3445 -20 3446 0
-3445 20 3446 0
22 23 -3447 0
-22 -23 -3447 0
22 -23 3447 0
-22 23 3447 0
3438 3440 -3448 0
-3438 -3440 -3448 0
3438 -3440 3448 0
-3438 3440 3448 0
3448 3442 -3449 0
-3448 -3442 -3449 0
3448 -3442 3449 0
-3448 3442 3449 0
3438 3444 -3450 0
-3438 -3444 -3450 0
3438 -3444 3450 0
-3438 3444 3450 0
3450 3446 -3451 0
-3450 -3446 -3451 0
3450 -3446 3451 0
-3450 3446 3451 0
3440 3444 -3452 0
-3440 -3444 -3452 0
3440 -3444 3452 0
-3440 3444 3452 0
3452 3447 -3453 0
-3452 -3447 -3453 0
3452 -3447 3453 0
-3452 3447 3453 0
3442 3446 -3454 0
-3442 -3446 -3454 0
3442 -3446 3454 0
-3442 3446 3454 0
3454 3447 -3455 0
-3454 -3447 -3455 0
3454 -3447 3455 0
-3454 3447 3455 0
3449 3451 3453 3455 0
1 2 -3456 0
-1 -2 -3456 0
1 -2 3456 0
-1 2 3456 0
3456 4 -3457 0
-3456 -4 -3457 0
3456 -4 3457 0
-3456 4 3457 0
5 7 -3458 0
-5 -7 -3458 0
5 -7 3458 0
-5 7 3458 0
3458 8 -3459 0
-3458 -8 -3459 0
3458 -8 3459 0
-3458 8 3459 0
9 10 -3460 0
-9 -10 -3460 0
9 -10 3460 0
-9 10 3460 0
3460 12 -3461 0
-3460 -12 -3461 0
3460 -12 3461 0
-3460 12 3461 0
13 14 -3462 0
-13 -14 -3462 0
13 -14 3462 0
-13 14 3462 0
3462 15 -3463 0
-3462 -15 -3463 0
3462 -15 3463 0
-3462 15 3463 0
17 20 -3464 0
-17 -20 -3464 0
17 -20 3464 0
-17 20 3464 0
22 23 -3465 0
-22 -23 -3465 0
22 -23 3465 0
-22 23 3465 0
3465 24 -3466 0
-3465 -24 -3466 0
3465 -24 3466 0
-3465 24 3466 0
3457 3459 -3467 0
-3457 -3459 -3467 0
3457 -3459 3467 0
-3457 3459 3467 0
3467 3461 -3468 0
-3467 -3461 -3468 0
3467 -3461 3468 0
-3467 3461 3468 0
3457 3463 -3469 0
-3457 -3463 -3469 0
3457 -3463 3469 0
-3457 3463 3469 0
3469 3464 -3470 0
-3469 -3464 -3470 0
3469 -3464 3470 0
-3469 3464 3470 0
3459 3463 -3471 0
-3459 -3463 -3471 0
3459 -3463 3471 0
-3459 3463 3471 0
3471 3466 -3472 0
-3471 -3466 -3472 0
3471 -3466 3472 0
-3471 3466 3472 0
3461 3464 -3473 0
-3461 -3464 -3473 0
3461 -3464 3473 0
-3461 3464 3473 0
3473 3466 -3474 0
-3473 -3466 -3474 0
3473 -3466 3474 0
-3473 3466 3474 0
3468 3470 3472 3474 0
1 2 -3475 0
-1 -2 -3475 0
1 -2 3475 0
-1 2 3475 0
3475 4 -3476 0
-3475 -4 -3476 0
3475 -4 3476 0
-3475 4 3476 0
6 7 -3477 0
-6 -7 -3477 0
6 -7 3477 0
-6 7 3477 0
9 12 -3478 0
-9 -12 -3478 0
9 -12 3478 0
-9 12 3478 0
14 15 -3479 0
-14 -15 -3479 0
14 -15 3479 0
-14 15 3479 0
3479 16 -3480 0
-3479 -16 -3480 0
3479 -16 3480 0
-3479 16 3480 0
17 18 -3481 0
-17 -18 -3481 0
17 -18 3481 0
-17 18 3481 0
3481 20 -3482 0
-3481 -20 -3482 0
3481 -20 3482 0
-3481 20 3482 0
22 23 -3483 0
-22 -23 -3483 0
22 -23 3483 0
-22 23 3483 0
3476 3477 -3484 0
-3476 -3477 -3484 0
3476 -3477 3484 0
-3476 3477 3484 0
3484 3478 -3485 0
-3484 -3478 -3485 0
3484 -3478 3485 0
-3484 3478 3485 0
3476 3480 -3486 0
-3476 -3480 -3486 0
3476 -3480 3486 0
-3476 3480 3486 0
3486 3482 -3487 0
-3486 -3482 -3487 0
3486 -3482 3487 0
-3486 3482 3487 0
3477 3480 -3488 0
-3477 -3480 -3488 0
3477 -3480 3488 0
-3477 3480 3488 0
3488 3483 -3489 0
-3488 -3483 -3489 0
3488 -3483 3489 0
-3488 3483 3489 0
3478 3482 -3490 0
-3478 -3482 -3490 0
3478 -3482 3490 0
-3478 3482 3490 0
3490 3483 -3491 0
-3490 -3483 -3491 0
3490 -3483 3491 0
-3490 3483 3491 0
3485 3487 3489 3491 0
1 2 -3492 0
-1 -2 -3492 0
1 -2 3492 0
-1 2 3492 0
3492 4 -3493 0
-3492 -4 -3493 0
3492 -4 3493 0
-3492 4 3493 0
6 7 -3494 0
-6 -7 -3494 0
6 -7 3494 0
-6 7 3494 0
9 11 -3495 0
-9 -11 -3495 0
9 -11 3495 0
-9 11 3495 0
3495 12 -3496 0
-3495 -12 -3496 0
3495 -12 3496 0
-3495 12 3496 0
14 15 -3497 0
-14 -15 -3497 0
14 -15 3497 0
-14 15 3497 0
3497 16 -3498 0
-3497 -16 -3498 0
3497 -16 3498 0
-3497 16 3498 0
17 18 -3499 0
-17 -18 -3499 0
17 -18 3499 0
-17 18 3499 0
3499 19 -3500 0
-3499 -19 -3500 0
3499 -19 3500 0
-3499 19 3500 0
22 23 -3501 0
-22 -23 -3501 0
22 -23 3501 0
-22 23 3501 0
3501 24 -3502 0
-3501 -24 -3502 0
3501 -24 3502 0
-3501 24 3502 0
3493 3494 -3503 0
-3493 -3494 -3503 0
3493 -3494 3503 0
-3493 3494 3503 0
3503 3496 -3504 0
-3503 -3496 -3504 0
3503 -3496 3504 0
-3503 3496 3504 0
3493 3498 -3505 0
-3493 -3498 -3505 0
3493 -3498 3505 0
-3493 3498 3505 0
3505 3500 -3506 0
-3505 -3500 -3506 0
3505 -3500 3506 0
-3505 3500 3506 0
3494 3498 -3507 0
-3494 -3498 -3507 0
3494 -3498 3507 0
-3494 3498 3507 0
3507 3502 -3508 0
-3507 -3502 -3508 0
3507 -3502 3508 0
-3507 3502 3508 0
3496 3500 -3509 0
-3496 -3500 -3509 0
3496 -3500 3509 0
-3496 3500 3509 0
3509 3502 -3510 0
-3509 -3502 -3510 0
3509 -3502 3510 0
-3509 3502 3510 0
3504 3506 3508 3510 0
1 2 -3511 0
-1 -2 -3511 0
1 -2 3511 0
-1 2 3511 0
3511 4 -3512 0
-3511 -4 -3512 0
3511 -4 3512 0
-3511 4 3512 0
6 7 -3513 0
-6 -7 -3513 0
6 -7 3513 0
-6 7 3513 0
10 11 -3514 0
-10 -11 -3514 0
10 -11 3514 0
-10 11 3514 0
14 15 -3515 0
-14 -15 -3515 0
14 -15 3515 0
-14 15 3515 0
3515 16 -3516 0
-3515 -16 -3516 0
3515 -16 3516 0
-3515 16 3516 0
18 19 -3517 0
-18 -19 -3517 0
18 -19 3517 0
-18 19 3517 0
3517 20 -3518 0
-3517 -20 -3518 0
3517 -20 3518 0
-3517 20 3518 0
21 24 -3519 0
-21 -24 -3519 0
21 -24 3519 0
-21 24 3519 0
3512 3513 -3520 0
-3512 -3513 -3520 0
3512 -3513 3520 0
-3512 3513 3520 0
3520 3514 -3521 0
-3520 -3514 -3521 0
3520 -3514 3521 0
-3520 3514 3521 0
3512 3516 -3522 0
-3512 -3516 -3522 0
3512 -3516 3522 0
-3512 3516 3522 0
3522 3518 -3523 0
-3522 -3518 -3523 0
3522 -3518 3523 0
-3522 3518 3523 0
3513 3516 -3524 0
-3513 -3516 -3524 0
3513 -3516 3524 0
-3513 3516 3524 0
3524 3519 -3525 0
-3524 -3519 -3525 0
3524 -3519 3525 0
-3524 3519 3525 0
3514 3518 -3526 0
-3514 -3518 -3526 0
3514 -3518 3526 0
-3514 3518 3526 0
3526 3519 -3527 0
-3526 -3519 -3527 0
3526 -3519 3527 0
-3526 3519 3527 0
3521 3523 3525 3527 0
1 2 -3528 0
-1 -2 -3528 0
1 -2 3528 0
-1 2 3528 0
3528 4 -3529 0
-3528 -4 -3529 0
3528 -4 3529 0
-3528 4 3529 0
6 7 -3530 0
-6 -7 -3530 0
6 -7 3530 0
-6 7 3530 0
10 11 -3531 0
-10 -11 -3531 0
10 -11 3531 0
-10 11 3531 0
3531 12 -3532 0
-3531 -12 -3532 0
3531 -12 3532 0
-3531 12 3532 0
14 15 -3533 0
-14 -15 -3533 0
14 -15 3533 0
-14 15 3533 0
3533 16 -3534 0
-3533 -16 -3534 0
3533 -16 3534 0
-3533 16 3534 0
18 19 -3535 0
-18 -19 -3535 0
18 -19 3535 0
-18 19 3535 0
21 23 -3536 0
-21 -23 -3536 0
21 -23 3536 0
-21 23 3536 0
3536 24 -3537 0
-3536 -24 -3537 0
3536 -24 3537 0
-3536 24 3537 0
3529 3530 -3538 0
-3529 -3530 -3538 0
3529 -3530 3538 0
-3529 3530 3538 0
3538 3532 -3539 0
-3538 -3532 -3539 0
3538 -3532 3539 0
-3538 3532 3539 0
3529 3534 -3540 0
-3529 -3534 -3540 0
3529 -3534 3540 0
-3529 3534 3540 0
3540 3535 -3541 0
-3540 -3535 -3541 0
3540 -3535 3541 0
-3540 3535 3541 0
3530 3534 -3542 0
-3530 -3534 -3542 0
3530 -3534 3542 0
-3530 3534 3542 0
3542 3537 -3543 0
-3542 -3537 -3543 0
3542 -3537 3543 0
-3542 3537 3543 0
3532 3535 -3544 0
-3532 -3535 -3544 0
3532 -3535 3544 0
-3532 3535 3544 0
3544 3537 -3545 0
-3544 -3537 -3545 0
3544 -3537 3545 0
-3544 3537 3545 0
3539 3541 3543 3545 0
1 2 -3546 0
-1 -2 -3546 0
1 -2 3546 0
-1 2 3546 0
3546 4 -3547 0
-3546 -4 -3547 0
3546 -4 3547 0
-3546 4 3547 0
6 7 -3548 0
-6 -7 -3548 0
6 -7 3548 0
-6 7 3548 0
9 10 -3549 0
-9 -10 -3549 0
9 -10 3549 0
-9 10 3549 0
3549 11 -3550 0
-3549 -11 -3550 0
3549 -11 3550 0
-3549 11 3550 0
14 15 -3551 0
-14 -15 -3551 0
14 -15 3551 0
-14 15 3551 0
3551 16 -3552 0
-3551 -16 -3552 0
3551 -16 3552 0
-3551 16 3552 0
17 19 -3553 0
-17 -19 -3553 0
17 -19 3553 0
-17 19 3553 0
3553 20 -3554 0
-3553 -20 -3554 0
3553 -20 3554 0
-3553 20 3554 0
21 22 -3555 0
-21 -22 -3555 0
21 -22 3555 0
-21 22 3555 0
3555 24 -3556 0
-3555 -24 -3556 0
3555 -24 3556 0
-3555 24 3556 0
3547 3548 -3557 0
-3547 -3548 -3557 0
3547 -3548 3557 0
-3547 3548 3557 0
3557 3550 -3558 0
-3557 -3550 -3558 0
3557 -3550 3558 0
-3557 3550 3558 0
3547 3552 -3559 0
-3547 -3552 -3559 0
3547 -3552 3559 0
-3547 3552 3559 0
3559 3554 -3560 0
-3559 -3554 -3560 0
3559 -3554 3560 0
-3559 3554 3560 0
3548 3552 -3561 0
-3548 -3552 -3561 0
3548 -3552 3561 0
-3548 3552 3561 0
3561 3556 -3562 0
-3561 -3556 -3562 0
3561 -3556 3562 0
-3561 3556 3562 0
3550 3554 -3563 0
-3550 -3554 -3563 0
3550 -3554 3563 0
-3550 3554 3563 0
3563 3556 -3564 0
-3563 -3556 -3564 0
3563 -3556 3564 0
-3563 3556 3564 0
3558 3560 3562 3564 0
1 2 -3565 0
-1 -2 -3565 0
1 -2 3565 0
-1 2 3565 0
3565 4 -3566 0
-3565 -4 -3566 0
3565 -4 3566 0
-3565 4 3566 0
6 7 -3567 0
-6 -7 -3567 0
6 -7 3567 0
-6 7 3567 0
9 10 -3568 0
-9 -10 -3568 0
9 -10 3568 0
-9 10 3568 0
3568 12 -3569 0
-3568 -12 -3569 0
3568 -12 3569 0
-3568 12 3569 0
14 15 -3570 0
-14 -15 -3570 0
14 -15 3570 0
-14 15 3570 0
3570 16 -3571 0
-3570 -16 -3571 0
3570 -16 3571 0
-3570 16 3571 0
17 20 -3572 0
-17 -20 -3572 0
17 -20 3572 0
-17 20 3572 0
21 22 -3573 0
-21 -22 -3573 0
21 -22 3573 0
-21 22 3573 0
3573 23 -3574 0
-3573 -23 -3574 0
3573 -23 3574 0
-3573 23 3574 0
3566 3567 -3575 0
-3566 -3567 -3575 0
3566 -3567 3575 0
-3566 3567 3575 0
3575 3569 -3576 0
-3575 -3569 -3576 0
3575 -3569 3576 0
-3575 3569 3576 0
3566 3571 -3577 0
-3566 -3571 -3577 0
3566 -3571 3577 0
-3566 3571 3577 0
3577 3572 -3578 0
-3577 -3572 -3578 0
3577 -3572 3578 0
-3577 3572 3578 0
3567 3571 -3579 0
-3567 -3571 -3579 0
3567 -3571 3579 0
-3567 3571 3579 0
3579 3574 -3580 0
-3579 -3574 -3580 0
3579 -3574 3580 0
-3579 3574 3580 0
3569 3572 -3581 0
-3569 -3572 -3581 0
3569 -3572 3581 0
-3569 3572 3581 0
3581 3574 -3582 0
-3581 -3574 -3582 0
3581 -3574 3582 0
-3581 3574 3582 0
3576 3578 3580 3582 0
1 2 -3583 0
-1 -2 -3583 0
1 -2 3583 0
-1 2 3583 0
3583 4 -3584 0
-3583 -4 -3584 0
3583 -4 3584 0
-3583 4 3584 0
6 7 -3585 0
-6 -7 -3585 0
6 -7 3585 0
-6 7 3585 0
3585 8 -3586 0
-3585 -8 -3586 0
3585 -8 3586 0
-3585 8 3586 0
9 12 -3587 0
-9 -12 -3587 0
9 -12 3587 0
-9 12 3587 0
14 15 -3588 0
-14 -15 -3588 0
14 -15 3588 0
-14 15 3588 0
17 18 -3589 0
-17 -18 -3589 0
17 -18 3589 0
-17 18 3589 0
3589 20 -3590 0
-3589 -20 -3590 0
3589 -20 3590 0
-3589 20 3590 0
21 22 -3591 0
-21 -22 -3591 0
21 -22 3591 0
-21 22 3591 0
3591 23 -3592 0
-3591 -23 -3592 0
3591 -23 3592 0
-3591 23 3592 0
3584 3586 -3593 0
-3584 -3586 -3593 0
3584 -3586 3593 0
-3584 3586 3593 0
3593 3587 -3594 0
-3593 -3587 -3594 0
3593 -3587 3594 0
-3593 3587 3594 0
3584 3588 -3595 0
-3584 -3588 -3595 0
3584 -3588 3595 0
-3584 3588 3595 0
3595 3590 -3596 0
-3595 -3590 -3596 0
3595 -3590 3596 0
-3595 3590 3596 0
3586 3588 -3597 0
-3586 -3588 -3597 0
3586 -3588 3597 0
-3586 3588 3597 0
3597 3592 -3598 0
-3597 -3592 -3598 0
3597 -3592 3598 0
-3597 3592 3598 0
3587 3590 -3599 0
-3587 -3590 -3599 0
3587 -3590 3599 0
-3587 3590 3599 0
3599 3592 -3600 0
-3599 -3592 -3600 0
3599 -3592 3600 0
-3599 3592 3600 0
3594 3596 3598 3600 0
1 2 -3601 0
-1 -2 -3601 0
1 -2 3601 0
-1 2 3601 0
3601 4 -3602 0
-3601 -4 -3602 0
3601 -4 3602 0
-3601 4 3602 0
6 7 -3603 0
-6 -7 -3603 0
6 -7 3603 0
-6 7 3603 0
3603 8 -3604 0
-3603 -8 -3604 0
3603 -8 3604 0
-3603 8 3604 0
9 11 -3605 0
-9 -11 -3605 0
9 -11 3605 0
-9 11 3605 0
3605 12 -3606 0
-3605 -12 -3606 0
3605 -12 3606 0
-3605 12 3606 0
14 15 -3607 0
-14 -15 -3607 0
14 -15 3607 0
-14 15 3607 0
17 18 -3608 0
-17 -18 -3608 0
17 -18 3608 0
-17 18 3608 0
3608 19 -3609 0
-3608 -19 -3609 0
3608 -19 3609 0
-3608 19 3609 0
21 22 -3610 0
-21 -22 -3610 0
21 -22 3610 0
-21 22 3610 0
3610 24 -3611 0
-3610 -24 -3611 0
3610 -24 3611 0
-3610 24 3611 0
3602 3604 -3612 0
-3602 -3604 -3612 0
3602 -3604 3612 0
-3602 3604 3612 0
3612 3606 -3613 0
-3612 -3606 -3613 0
3612 -3606 3613 0
-3612 3606 3613 0
3602 3607 -3614 0
-3602 -3607 -3614 0
3602 -3607 3614 0
-3602 3607 3614 0
3614 3609 -3615 0
-3614 -3609 -3615 0
3614 -3609 3615 0
-3614 3609 3615 0
3604 3607 -3616 0
-3604 -3607 -3616 0
3604 -3607 3616 0
-3604 3607 3616 0
3616 3611 -3617 0
-3616 -3611 -3617 0
3616 -3611 3617 0
-3616 3611 3617 0
3606 3609 -3618 0
-3606 -3609 -3618 0
3606 -3609 3618 0
-3606 3609 3618 0
3618 3611 -3619 0
-3618 -3611 -3619 0
3618 -3611 3619 0
-3618 3611 3619 0
3613 3615 3617 3619 0
1 2 -3620 0
-1 -2 -3620 0
1 -2 3620 0
-1 2 3620 0
3620 4 -3621 0
-3620 -4 -3621 0
3620 -4 3621 0
-3620 4 3621 0
6 7 -3622 0
-6 -7 -3622 0
6 -7 3622 0
-6 7 3622 0
3622 8 -3623 0
-3622 -8 -3623 0
3622 -8 3623 0
-3622 8 3623 0
10 11 -3624 0
-10 -11 -3624 0
10 -11 3624 0
-10 11 3624 0
14 15 -3625 0
-14 -15 -3625 0
14 -15 3625 0
-14 15 3625 0
18 19 -3626 0
-18 -19 -3626 0
18 -19 3626 0
-18 19 3626 0
3626 20 -3627 0
-3626 -20 -3627 0
3626 -20 3627 0
-3626 20 3627 0
21 23 -3628 0
-21 -23 -3628 0
21 -23 3628 0
-21 23 3628 0
3628 24 -3629 0
-3628 -24 -3629 0
3628 -24 3629 0
-3628 24 3629 0
3621 3623 -3630 0
-3621 -3623 -3630 0
3621 -3623 3630 0
-3621 3623 3630 0
3630 3624 -3631 0
-3630 -3624 -3631 0
3630 -3624 3631 0
-3630 3624 3631 0
3621 3625 -3632 0
-3621 -3625 -3632 0
3621 -3625 3632 0
-3621 3625 3632 0
3632 3627 -3633 0
-3632 -3627 -3633 0
3632 -3627 3633 0
-3632 3627 3633 0
3623 3625 -3634 0
-3623 -3625 -3634 0
3623 -3625 3634 0
-3623 3625 3634 0
3634 3629 -3635 0
-3634 -3629 -3635 0
3634 -3629 3635 0
-3634 3629 3635 0
3624 3627 -3636 0
-3624 -3627 -3636 0
3624 -3627 3636 0
-3624 3627 3636 0
3636 3629 -3637 0
-3636 -3629 -3637 0
3636 -3629 3637 0
-3636 3629 3637 0
3631 3633 3635 3637 0
1 2 -3638 0
-1 -2 -3638 0
1 -2 3638 0
-1 2 3638 0
3638 4 -3639 0
-3638 -4 -3639 0
3638 -4 3639 0
-3638 4 3639 0
6 7 -3640 0
-6 -7 -3640 0
6 -7 3640 0
-6 7 3640 0
3640 8 -3641 0
-3640 -8 -3641 0
3640 -8 3641 0
-3640 8 3641 0
10 11 -3642 0
-10 -11 -3642 0
10 -11 3642 0
-10 11 3642 0
3642 12 -3643 0
-3642 -12 -3643 0
3642 -12 3643 0
-3642 12 3643 0
14 15 -3644 0
-14 -15 -3644 0
14 -15 3644 0
-14 15 3644 0
18 19 -3645 0
-18 -19 -3645 0
18 -19 3645 0
-18 19 3645 0
21 24 -3646 0
-21 -24 -3646 0
21 -24 3646 0
-21 24 3646 0
3639 3641 -3647 0
-3639 -3641 -3647 0
3639 -3641 3647 0
-3639 3641 3647 0
3647 3643 -3648 0
-3647 -3643 -3648 0
3647 -3643 3648 0
-3647 3643 3648 0
3639 3644 -3649 0
-3639 -3644 -3649 0
3639 -3644 3649 0
-3639 3644 3649 0
3649 3645 -3650 0
-3649 -3645 -3650 0
3649 -3645 3650 0
-3649 3645 3650 0
3641 3644 -3651 0
-3641 -3644 -3651 0
3641 -3644 3651 0
-3641 3644 3651 0
3651 3646 -3652 0
-3651 -3646 -3652 0
3651 -3646 3652 0
-3651 3646 3652 0
3643 3645 -3653 0
-3643 -3645 -3653 0
3643 -3645 3653 0
-3643 3645 3653 0
3653 3646 -3654 0
-3653 -3646 -3654 0
3653 -3646 3654 0
-3653 3646 3654 0
3648 3650 3652 3654 0
1 2 -3655 0
-1 -2 -3655 0
1 -2 3655 0
-1 2 3655 0
3655 4 -3656 0
-3655 -4 -3656 0
3655 -4 3656 0
-3655 4 3656 0
6 7 -3657 0
-6 -7 -3657 0
6 -7 3657 0
-6 7 3657 0
3657 8 -3658 0
-3657 -8 -3658 0
3657 -8 3658 0
-3657 8 3658 0
9 10 -3659 0
-9 -10 -3659 0
9 -10 3659 0
-9 10 3659 0
3659 11 -3660 0
-3659 -11 -3660 0
3659 -11 3660 0
-3659 11 3660 0
14 15 -3661 0
-14 -15 -3661 0
14 -15 3661 0
-14 15 3661 0
17 19 -3662 0
-17 -19 -3662 0
17 -19 3662 0
-17 19 3662 0
3662 20 -3663 0
-3662 -20 -3663 0
3662 -20 3663 0
-3662 20 3663 0
22 23 -3664 0
-22 -23 -3664 0
22 -23 3664 0
-22 23 3664 0
3664 24 -3665 0
-3664 -24 -3665 0
3664 -24 3665 0
-3664 24 3665 0
3656 3658 -3666 0
-3656 -3658 -3666 0
3656 -3658 3666 0
-3656 3658 3666 0
3666 3660 -3667 0
-3666 -3660 -3667 0
3666 -3660 3667 0
-3666 3660 3667 0
3656 3661 -3668 0
-3656 -3661 -3668 0
3656 -3661 3668 0
-3656 3661 3668 0
3668 3663 -3669 0
-3668 -3663 -3669 0
3668 -3663 3669 0
-3668 3663 3669 0
3658 3661 -3670 0
-3658 -3661 -3670 0
3658 -3661 3670 0
-3658 3661 3670 0
3670 3665 -3671 0
-3670 -3665 -3671 0
3670 -3665 3671 0
-3670 3665 3671 0
3660 3663 -3672 0
-3660 -3663 -3672 0
3660 -3663 3672 0
-3660 3663 3672 0
3672 3665 -3673 0
-3672 -3665 -3673 0
3672 -3665 3673 0
-3672 3665 3673 0
3667 3669 3671 3673 0
1 2 -3674 0
-1 -2 -3674 0
1 -2 3674 0
-1 2 3674 0
3674 4 -3675 0
-3674 -4 -3675 0
3674 -4 3675 0
-3674 4 3675 0
6 7 -3676 0
-6 -7 -3676 0
6 -7 3676 0
-6 7 3676 0
3676 8 -3677 0
-3676 -8 -3677 0
3676 -8 3677 0
-3676 8 3677 0
9 10 -3678 0
-9 -10 -3678 0
9 -10 3678 0
-9 10 3678 0
3678 12 -3679 0
-3678 -12 -3679 0
3678 -12 3679 0
-3678 12 3679 0
14 15 -3680 0
-14 -15 -3680 0
14 -15 3680 0
-14 15 3680 0
17 20 -3681 0
-17 -20 -3681 0
17 -20 3681 0
-17 20 3681 0
22 23 -3682 0
-22 -23 -3682 0
22 -23 3682 0
-22 23 3682 0
3675 3677 -3683 0
-3675 -3677 -3683 0
3675 -3677 3683 0
-3675 3677 3683 0
3683 3679 -3684 0
-3683 -3679 -3684 0
3683 -3679 3684 0
-3683 3679 3684 0
3675 3680 -3685 0
-3675 -3680 -3685 0
3675 -3680 3685 0
-3675 3680 3685 0
3685 3681 -3686 0
-3685 -3681 -3686 0
3685 -3681 3686 0
-3685 3681 3686 0
3677 3680 -3687 0
-3677 -3680 -3687 0
3677 -3680 3687 0
-3677 3680 3687 0
3687 3682 -3688 0
-3687 -3682 -3688 0
3687 -3682 3688 0
-3687 3682 3688 0
3679 3681 -3689 0
-3679 -3681 -3689 0
3679 -3681 3689 0
-3679 3681 3689 0
3689 3682 -3690 0
-3689 -3682 -3690 0
3689 -3682 3690 0
-3689 3682 3690 0
3684 3686 3688 3690 0
1 2 -3691 0
-1 -2 -3691 0
1 -2 3691 0
-1 2 3691 0
3691 4 -3692 0
-3691 -4 -3692 0
3691 -4 3692 0
-3691 4 3692 0
5 6 -3693 0
-5 -6 -3693 0
5 -6 3693 0
-5 6 3693 0
3693 7 -3694 0
-3693 -7 -3694 0
3693 -7 3694 0
-3693 7 3694 0
9 12 -3695 0
-9 -12 -3695 0
9 -12 3695 0
-9 12 3695 0
13 15 -3696 0
-13 -15 -3696 0
13 -15 3696 0
-13 15 3696 0
3696 16 -3697 0
-3696 -16 -3697 0
3696 -16 3697 0
-3696 16 3697 0
17 18 -3698 0
-17 -18 -3698 0
17 -18 3698 0
-17 18 3698 0
3698 20 -3699 0
-3698 -20 -3699 0
3698 -20 3699 0
-3698 20 3699 0
22 23 -3700 0
-22 -23 -3700 0
22 -23 3700 0
-22 23 3700 0
3700 24 -3701 0
-3700 -24 -3701 0
3700 -24 3701 0
-3700 24 3701 0
3692 3694 -3702 0
-3692 -3694 -3702 0
3692 -3694 3702 0
-3692 3694 3702 0
3702 3695 -3703 0
-3702 -3695 -3703 0
3702 -3695 3703 0
-3702 3695 3703 0
3692 3697 -3704 0
-3692 -3697 -3704 0
3692 -3697 3704 0
-3692 3697 3704 0
3704 3699 -3705 0
-3704 -3699 -3705 0
3704 -3699 3705 0
-3704 3699 3705 0
3694 3697 -3706 0
-3694 -3697 -3706 0
3694 -3697 3706 0
-3694 3697 3706 0
3706 3701 -3707 0
-3706 -3701 -3707 0
3706 -3701 3707 0
-3706 3701 3707 0
3695 3699 -3708 0
-3695 -3699 -3708 0
3695 -3699 3708 0
-3695 3699 3708 0
3708 3701 -3709 0
-3708 -3701 -3709 0
3708 -3701 3709 0
-3708 3701 3709 0
3703 3705 3707 3709 0
1 2 -3710 0
-1 -2 -3710 0
1 -2 3710 0
-1 2 3710 0
3710 4 -3711 0
-3710 -4 -3711 0
3710 -4 3711 0
-3710 4 3711 0
5 6 -3712 0
-5 -6 -3712 0
5 -6 3712 0
-5 6 3712 0
3712 7 -3713 0
-3712 -7 -3713 0
3712 -7 3713 0
-3712 7 3713 0
9 11 -3714 0
-9 -11 -3714 0
9 -11 3714 0
-9 11 3714 0
3714 12 -3715 0
-3714 -12 -3715 0
3714 -12 3715 0
-3714 12 3715 0
13 15 -3716 0
-13 -15 -3716 0
13 -15 3716 0
-13 15 3716 0
3716 16 -3717 0
-3716 -16 -3717 0
3716 -16 3717 0
-3716 16 3717 0
17 18 -3718 0
-17 -18 -3718 0
17 -18 3718 0
-17 18 3718 0
3718 19 -3719 0
-3718 -19 -3719 0
3718 -19 3719 0
-3718 19 3719 0
22 23 -3720 0
-22 -23 -3720 0
22 -23 3720 0
-22 23 3720 0
3711 3713 -3721 0
-3711 -3713 -3721 0
3711 -3713 3721 0
-3711 3713 3721 0
3721 3715 -3722 0
-3721 -3715 -3722 0
3721 -3715 3722 0
-3721 3715 3722 0
3711 3717 -3723 0
-3711 -3717 -3723 0
3711 -3717 3723 0
-3711 3717 3723 0
3723 3719 -3724 0
-3723 -3719 -3724 0
3723 -3719 3724 0
-3723 3719 3724 0
3713 3717 -3725 0
-3713 -3717 -3725 0
3713 -3717 3725 0
-3713 3717 3725 0
3725 3720 -3726 0
-3725 -3720 -3726 0
3725 -3720 3726 0
-3725 3720 3726 0
3715 3719 -3727 0
-3715 -3719 -3727 0
3715 -3719 3727 0
-3715 3719 3727 0
3727 3720 -3728 0
-3727 -3720 -3728 0
3727 -3720 3728 0
-3727 3720 3728 0
3722 3724 3726 3728 0
1 2 -3729 0
-1 -2 -3729 0
1 -2 3729 0
-1 2 3729 0
3729 4 -3730 0
-3729 -4 -3730 0
3729 -4 3730 0
-3729 4 3730 0
5 6 -3731 0
-5 -6 -3731 0
5 -6 3731 0
-5 6 3731 0
3731 7 -3732 0
-3731 -7 -3732 0
3731 -7 3732 0
-3731 7 3732 0
10 11 -3733 0
-10 -11 -3733 0
10 -11 3733 0
-10 11 3733 0
13 15 -3734 0
-13 -15 -3734 0
13 -15 3734 0
-13 15 3734 0
3734 16 -3735 0
-3734 -16 -3735 0
3734 -16 3735 0
-3734 16 3735 0
18 19 -3736 0
-18 -19 -3736 0
18 -19 3736 0
-18 19 3736 0
3736 20 -3737 0
-3736 -20 -3737 0
3736 -20 3737 0
-3736 20 3737 0
21 22 -3738 0
-21 -22 -3738 0
21 -22 3738 0
-21 22 3738 0
3738 24 -3739 0
-3738 -24 -3739 0
3738 -24 3739 0
-3738 24 3739 0
3730 3732 -3740 0
-3730 -3732 -3740 0
3730 -3732 3740 0
-3730 3732 3740 0
3740 3733 -3741 0
-3740 -3733 -3741 0
3740 -3733 3741 0
-3740 3733 3741 0
3730 3735 -3742 0
-3730 -3735 -3742 0
3730 -3735 3742 0
-3730 3735 3742 0
3742 3737 -3743 0
-3742 -3737 -3743 0
3742 -3737 3743 0
-3742 3737 3743 0
3732 3735 -3744 0
-3732 -3735 -3744 0
3732 -3735 3744 0
-3732 3735 3744 0
3744 3739 -3745 0
-3744 -3739 -3745 0
3744 -3739 3745 0
-3744 3739 3745 0
3733 3737 -3746 0
-3733 -3737 -3746 0
3733 -3737 3746 0
-3733 3737 3746 0
3746 3739 -3747 0
-3746 -3739 -3747 0
3746 -3739 3747 0
-3746 3739 3747 0
3741 3743 3745 3747 0
1 2 -3748 0
-1 -2 -3748 0
1 -2 3748 0
-1 2 3748 0
3748 4 -3749 0
-3748 -4 -3749 0
3748 -4 3749 0
-3748 4 3749 0
5 6 -3750 0
-5 -6 -3750 0
5 -6 3750 0
-5 6 3750 0
3750 7 -3751 0
-3750 -7 -3751 0
3750 -7 3751 0
-3750 7 3751 0
10 11 -3752 0
-10 -11 -3752 0
10 -11 3752 0
-10 11 3752 0
3752 12 -3753 0
-3752 -12 -3753 0
3752 -12 3753 0
-3752 12 3753 0
13 15 -3754 0
-13 -15 -3754 0
13 -15 3754 0
-13 15 3754 0
3754 16 -3755 0
-3754 -16 -3755 0
3754 -16 3755 0
-3754 16 3755 0
18 19 -3756 0
-18 -19 -3756 0
18 -19 3756 0
-18 19 3756 0
21 22 -3757 0
-21 -22 -3757 0
21 -22 3757 0
-21 22 3757 0
3757 23 -3758 0
-3757 -23 -3758 0
3757 -23 3758 0
-3757 23 3758 0
3749 3751 -3759 0
-3749 -3751 -3759 0
3749 -3751 3759 0
-3749 3751 3759 0
3759 3753 -3760 0
-3759 -3753 -3760 0
3759 -3753 3760 0
-3759 3753 3760 0
3749 3755 -3761 0
-3749 -3755 -3761 0
3749 -3755 3761 0
-3749 3755 3761 0
3761 3756 -3762 0
-3761 -3756 -3762 0
3761 -3756 3762 0
-3761 3756 3762 0
3751 3755 -3763 0
-3751 -3755 -3763 0
3751 -3755 3763 0
-3751 3755 3763 0
3763 3758 -3764 0
-3763 -3758 -3764 0
3763 -3758 3764 0
-3763 3758 3764 0
3753 3756 -3765 0
-3753 -3756 -3765 0
3753 -3756 3765 0
-3753 3756 3765 0
3765 3758 -3766 0
-3765 -3758 -3766 0
3765 -3758 3766 0
-3765 3758 3766 0
3760 3762 3764 3766 0
1 2 -3767 0
-1 -2 -3767 0
1 -2 3767 0
-1 2 3767 0
3767 4 -3768 0
-3767 -4 -3768 0
3767 -4 3768 0
-3767 4 3768 0
5 6 -3769 0
-5 -6 -3769 0
5 -6 3769 0
-5 6 3769 0
3769 7 -3770 0
-3769 -7 -3770 0
3769 -7 3770 0
-3769 7 3770 0
9 10 -3771 0
-9 -10 -3771 0
9 -10 3771 0
-9 10 3771 0
3771 11 -3772 0
-3771 -11 -3772 0
3771 -11 3772 0
-3771 11 3772 0
13 15 -3773 0
-13 -15 -3773 0
13 -15 3773 0
-13 15 3773 0
3773 16 -3774 0
-3773 -16 -3774 0
3773 -16 3774 0
-3773 16 3774 0
17 19 -3775 0
-17 -19 -3775 0
17 -19 3775 0
-17 19 3775 0
3775 20 -3776 0
-3775 -20 -3776 0
3775 -20 3776 0
-3775 20 3776 0
21 24 -3777 0
-21 -24 -3777 0
21 -24 3777 0
-21 24 3777 0
3768 3770 -3778 0
-3768 -3770 -3778 0
3768 -3770 3778 0
-3768 3770 3778 0
3778 3772 -3779 0
-3778 -3772 -3779 0
3778 -3772 3779 0
-3778 3772 3779 0
3768 3774 -3780 0
-3768 -3774 -3780 0
3768 -3774 3780 0
-3768 3774 3780 0
3780 3776 -3781 0
-3780 -3776 -3781 0
3780 -3776 3781 0
-3780 3776 3781 0
3770 3774 -3782 0
-3770 -3774 -3782 0
3770 -3774 3782 0
-3770 3774 3782 0
3782 3777 -3783 0
-3782 -3777 -3783 0
3782 -3777 3783 0
-3782 3777 3783 0
3772 3776 -3784 0
-3772 -3776 -3784 0
3772 -3776 3784 0
-3772 3776 3784 0
3784 3777 -3785 0
-3784 -3777 -3785 0
3784 -3777 3785 0
-3784 3777 3785 0
3779 3781 3783 3785 0
1 2 -3786 0
-1 -2 -3786 0
1 -2 3786 0
-1 2 3786 0
3786 4 -3787 0
-3786 -4 -3787 0
3786 -4 3787 0
-3786 4 3787 0
5 6 -3788 0
-5 -6 -3788 0
5 -6 3788 0
-5 6 3788 0
3788 7 -3789 0
-3788 -7 -3789 0
3788 -7 3789 0
-3788 7 3789 0
9 10 -3790 0
-9 -10 -3790 0
9 -10 3790 0
-9 10 3790 0
3790 12 -3791 0
-3790 -12 -3791 0
3790 -12 3791 0
-3790 12 3791 0
13 15 -3792 0
-13 -15 -3792 0
13 -15 3792 0
-13 15 3792 0
3792 16 -3793 0
-3792 -16 -3793 0
3792 -16 3793 0
-3792 16 3793 0
17 20 -3794 0
-17 -20 -3794 0
17 -20 3794 0
-17 20 3794 0
21 23 -3795 0
-21 -23 -3795 0
21 -23 3795 0
-21 23 3795 0
3795 24 -3796 0
-3795 -24 -3796 0
3795 -24 3796 0
-3795 24 3796 0
3787 3789 -3797 0
-3787 -3789 -3797 0
3787 -3789 3797 0
-3787 3789 3797 0
3797 3791 -3798 0
-3797 -3791 -3798 0
3797 -3791 3798 0
-3797 3791 3798 0
3787 3793 -3799 0
-3787 -3793 -3799 0
3787 -3793 3799 0
-3787 3793 3799 0
3799 3794 -3800 0
-3799 -3794 -3800 0
3799 -3794 3800 0
-3799 3794 3800 0
3789 3793 -3801 0
-3789 -3793 -3801 0
3789 -3793 3801 0
-3789 3793 3801 0
3801 3796 -3802 0
-3801 -3796 -3802 0
3801 -3796 3802 0
-3801 3796 3802 0
3791 3794 -3803 0
-3791 -3794 -3803 0
3791 -3794 3803 0
-3791 3794 3803 0
3803 3796 -3804 0
-3803 -3796 -3804 0
3803 -3796 3804 0
-3803 3796 3804 0
3798 3800 3802 3804 0
1 2 -3805 0
-1 -2 -3805 0
1 -2 3805 0
-1 2 3805 0
3805 4 -3806 0
-3805 -4 -3806 0
3805 -4 3806 0
-3805 4 3806 0
5 6 -3807 0
-5 -6 -3807 0
5 -6 3807 0
-5 6 3807 0
3807 8 -3808 0
-3807 -8 -3808 0
3807 -8 3808 0
-3807 8 3808 0
9 12 -3809 0
-9 -12 -3809 0
9 -12 3809 0
-9 12 3809 0
13 16 -3810 0
-13 -16 -3810 0
13 -16 3810 0
-13 16 3810 0
17 18 -3811 0
-17 -18 -3811 0
17 -18 3811 0
-17 18 3811 0
3811 20 -3812 0
-3811 -20 -3812 0
3811 -20 3812 0
-3811 20 3812 0
21 22 -3813 0
-21 -22 -3813 0
21 -22 3813 0
-21 22 3813 0
3813 24 -3814 0
-3813 -24 -3814 0
3813 -24 3814 0
-3813 24 3814 0
3806 3808 -3815 0
-3806 -3808 -3815 0
3806 -3808 3815 0
-3806 3808 3815 0
3815 3809 -3816 0
-3815 -3809 -3816 0
3815 -3809 3816 0
-3815 3809 3816 0
3806 3810 -3817 0
-3806 -3810 -3817 0
3806 -3810 3817 0
-3806 3810 3817 0
3817 3812 -3818 0
-3817 -3812 -3818 0
3817 -3812 3818 0
-3817 3812 3818 0
3808 3810 -3819 0
-3808 -3810 -3819 0
3808 -3810 3819 0
-3808 3810 3819 0
3819 3814 -3820 0
-3819 -3814 -3820 0
3819 -3814 3820 0
-3819 3814 3820 0
3809 3812 -3821 0
-3809 -3812 -3821 0
3809 -3812 3821 0
-3809 3812 3821 0
3821 3814 -3822 0
-3821 -3814 -3822 0
3821 -3814 3822 0
-3821 3814 3822 0
3816 3818 3820 3822 0
1 2 -3823 0
-1 -2 -3823 0
1 -2 3823 0
-1 2 3823 0
3823 4 -3824 0
-3823 -4 -3824 0
3823 -4 3824 0
-3823 4 3824 0
5 6 -3825 0
-5 -6 -3825 0
5 -6 3825 0
-5 6 3825 0
3825 8 -3826 0
-3825 -8 -3826 0
3825 -8 3826 0
-3825 8 3826 0
9 11 -3827 0
-9 -11 -3827 0
9 -11 3827 0
-9 11 3827 0
3827 12 -3828 0
-3827 -12 -3828 0
3827 -12 3828 0
-3827 12 3828 0
13 16 -3829 0
-13 -16 -3829 0
13 -16 3829 0
-13 16 3829 0
17 18 -3830 0
-17 -18 -3830 0
17 -18 3830 0
-17 18 3830 0
3830 19 -3831 0
-3830 -19 -3831 0
3830 -19 3831 0
-3830 19 3831 0
21 22 -3832 0
-21 -22 -3832 0
21 -22 3832 0
-21 22 3832 0
3832 23 -3833 0
-3832 -23 -3833 0
3832 -23 3833 0
-3832 23 3833 0
3824 3826 -3834 0
-3824 -3826 -3834 0
3824 -3826 3834 0
-3824 3826 3834 0
3834 3828 -3835 0
-3834 -3828 -3835 0
3834 -3828 3835 0
-3834 3828 3835 0
3824 3829 -3836 0
-3824 -3829 -3836 0
3824 -3829 3836 0
-3824 3829 3836 0
3836 3831 -3837 0
-3836 -3831 -3837 0
3836 -3831 3837 0
-3836 3831 3837 0
3826 3829 -3838 0
-3826 -3829 -3838 0
3826 -3829 3838 0
-3826 3829 3838 0
3838 3833 -3839 0
-3838 -3833 -3839 0
3838 -3833 3839 0
-3838 3833 3839 0
3828 3831 -3840 0
-3828 -3831 -3840 0
3828 -3831 3840 0
-3828 3831 3840 0
3840 3833 -3841 0
-3840 -3833 -3841 0
3840 -3833 3841 0
-3840 3833 3841 0
3835 3837 3839 3841 0
1 2 -3842 0
-1 -2 -3842 0
1 -2 3842 0
-1 2 3842 0
3842 4 -3843 0
-3842 -4 -3843 0
3842 -4 3843 0
-3842 4 3843 0
5 6 -3844 0
-5 -6 -3844 0
5 -6 3844 0
-5 6 3844 0
3844 8 -3845 0
-3844 -8 -3845 0
3844 -8 3845 0
-3844 8 3845 0
10 11 -3846 0
-10 -11 -3846 0
10 -11 3846 0
-10 11 3846 0
13 16 -3847 0
-13 -16 -3847 0
13 -16 3847 0
-13 16 3847 0
18 19 -3848 0
-18 -19 -3848 0
18 -19 3848 0
-18 19 3848 0
3848 20 -3849 0
-3848 -20 -3849 0
3848 -20 3849 0
-3848 20 3849 0
22 23 -3850 0
-22 -23 -3850 0
22 -23 3850 0
-22 23 3850 0
3850 24 -3851 0
-3850 -24 -3851 0
3850 -24 3851 0
-3850 24 3851 0
3843 3845 -3852 0
-3843 -3845 -3852 0
3843 -3845 3852 0
-3843 3845 3852 0
3852 3846 -3853 0
-3852 -3846 -3853 0
3852 -3846 3853 0
-3852 3846 3853 0
3843 3847 -3854 0
-3843 -3847 -3854 0
3843 -3847 3854 0
-3843 3847 3854 0
3854 3849 -3855 0
-3854 -3849 -3855 0
3854 -3849 3855 0
-3854 3849 3855 0
3845 3847 -3856 0
-3845 -3847 -3856 0
3845 -3847 3856 0
-3845 3847 3856 0
3856 3851 -3857 0
-3856 -3851 -3857 0
3856 -3851 3857 0
-3856 3851 3857 0
3846 3849 -3858 0
-3846 -3849 -3858 0
3846 -3849 3858 0
-3846 3849 3858 0
3858 3851 -3859 0
-3858 -3851 -3859 0
3858 -3851 3859 0
-3858 3851 3859 0
3853 3855 3857 3859 0
1 2 -3860 0
-1 -2 -3860 0
1 -2 3860 0
-1 2 3860 0
3860 4 -3861 0
-3860 -4 -3861 0
3860 -4 3861 0
-3860 4 3861 0
5 6 -3862 0
-5 -6 -3862 0
5 -6 3862 0
-5 6 3862 0
3862 8 -3863 0
-3862 -8 -3863 0
3862 -8 3863 0
-3862 8 3863 0
10 11 -3864 0
-10 -11 -3864 0
10 -11 3864 0
-10 11 3864 0
3864 12 -3865 0
-3864 -12 -3865 0
3864 -12 3865 0
-3864 12 3865 0
13 16 -3866 0
-13 -16 -3866 0
13 -16 3866 0
-13 16 3866 0
18 19 -3867 0
-18 -19 -3867 0
18 -19 3867 0
-18 19 3867 0
22 23 -3868 0
-22 -23 -3868 0
22 -23 3868 0
-22 23 3868 0
3861 3863 -3869 0
-3861 -3863 -3869 0
3861 -3863 3869 0
-3861 3863 3869 0
3869 3865 -3870 0
-3869 -3865 -3870 0
3869 -3865 3870 0
-3869 3865 3870 0
3861 3866 -3871 0
-3861 -3866 -3871 0
3861 -3866 3871 0
-3861 3866 3871 0
3871 3867 -3872 0
-3871 -3867 -3872 0
3871 -3867 3872 0
-3871 3867 3872 0
3863 3866 -3873 0
-3863 -3866 -3873 0
3863 -3866 3873 0
-3863 3866 3873 0
3873 3868 -3874 0
-3873 -3868 -3874 0
3873 -3868 3874 0
-3873 3868 3874 0
3865 3867 -3875 0
-3865 -3867 -3875 0
3865 -3867 3875 0
-3865 3867 3875 0
3875 3868 -3876 0
-3875 -3868 -3876 0
3875 -3868 3876 0
-3875 3868 3876 0
3870 3872 3874 3876 0
1 2 -3877 0
-1 -2 -3877 0
1 -2 3877 0
-1 2 3877 0
3877 4 -3878 0
-3877 -4 -3878 0
3877 -4 3878 0
-3877 4 3878 0
5 6 -3879 0
-5 -6 -3879 0
5 -6 3879 0
-5 6 3879 0
3879 8 -3880 0
-3879 -8 -3880 0
3879 -8 3880 0
-3879 8 3880 0
9 10 -3881 0
-9 -10 -3881 0
9 -10 3881 0
-9 10 3881 0
3881 11 -3882 0
-3881 -11 -3882 0
3881 -11 3882 0
-3881 11 3882 0
13 16 -3883 0
-13 -16 -3883 0
13 -16 3883 0
-13 16 3883 0
17 19 -3884 0
-17 -19 -3884 0
17 -19 3884 0
-17 19 3884 0
3884 20 -3885 0
-3884 -20 -3885 0
3884 -20 3885 0
-3884 20 3885 0
21 23 -3886 0
-21 -23 -3886 0
21 -23 3886 0
-21 23 3886 0
3886 24 -3887 0
-3886 -24 -3887 0
3886 -24 3887 0
-3886 24 3887 0
3878 3880 -3888 0
-3878 -3880 -3888 0
3878 -3880 3888 0
-3878 3880 3888 0
3888 3882 -3889 0
-3888 -3882 -3889 0
3888 -3882 3889 0
-3888 3882 3889 0
3878 3883 -3890 0
-3878 -3883 -3890 0
3878 -3883 3890 0
-3878 3883 3890 0
3890 3885 -3891 0
-3890 -3885 -3891 0
3890 -3885 3891 0
-3890 3885 3891 0
3880 3883 -3892 0
-3880 -3883 -3892 0
3880 -3883 3892 0
-3880 3883 3892 0
3892 3887 -3893 0
-3892 -3887 -3893 0
3892 -3887 3893 0
-3892 3887 3893 0
3882 3885 -3894 0
-3882 -3885 -3894 0
3882 -3885 3894 0
-3882 3885 3894 0
3894 3887 -3895 0
-3894 -3887 -3895 0
3894 -3887 3895 0
-3894 3887 3895 0
3889 3891 3893 3895 0
1 2 -3896 0
-1 -2 -3896 0
1 -2 3896 0
-1 2 3896 0
3896 4 -3897 0
-3896 -4 -3897 0
3896 -4 3897 0
-3896 4 3897 0
5 6 -3898 0
-5 -6 -3898 0
5 -6 3898 0
-5 6 3898 0
3898 8 -3899 0
-3898 -8 -3899 0
3898 -8 3899 0
-3898 8 3899 0
9 10 -3900 0
-9 -10 -3900 0
9 -10 3900 0
-9 10 3900 0
3900 12 -3901 0
-3900 -12 -3901 0
3900 -12 3901 0
-3900 12 3901 0
13 16 -3902 0
-13 -16 -3902 0
13 -16 3902 0
-13 16 3902 0
17 20 -3903 0
-17 -20 -3903 0
17 -20 3903 0
-17 20 3903 0
21 24 -3904 0
-21 -24 -3904 0
21 -24 3904 0
-21 24 3904 0
3897 3899 -3905 0
-3897 -3899 -3905 0
3897 -3899 3905 0
-3897 3899 3905 0
3905 3901 -3906 0
-3905 -3901 -3906 0
3905 -3901 3906 0
-3905 3901 3906 0
3897 3902 -3907 0
-3897 -3902 -3907 0
3897 -3902 3907 0
-3897 3902 3907 0
3907 3903 -3908 0
-3907 -3903 -3908 0
3907 -3903 3908 0
-3907 3903 3908 0
3899 3902 -3909 0
-3899 -3902 -3909 0
3899 -3902 3909 0
-3899 3902 3909 0
3909 3904 -3910 0
-3909 -3904 -3910 0
3909 -3904 3910 0
-3909 3904 3910 0
3901 3903 -3911 0
-3901 -3903 -3911 0
3901 -3903 3911 0
-3901 3903 3911 0
3911 3904 -3912 0
-3911 -3904 -3912 0
3911 -3904 3912 0
-3911 3904 3912 0
3906 3908 3910 3912 0
