p cnf 84 108
x-13 1 4 5 8 0
x-14 1 4 9 12 0
13 14 0
x-15 1 4 5 7 8 0
x-16 1 4 9 11 12 0
15 16 0
x-17 1 4 6 7 0
x-18 1 4 10 11 0
17 18 0
x-19 1 4 6 7 8 0
x-20 1 4 10 11 12 0
19 20 0
x-21 1 4 5 6 7 0
x-22 1 4 9 10 11 0
21 22 0
x-23 1 4 5 6 8 0
x-24 1 4 9 10 12 0
23 24 0
x-25 1 3 4 5 8 0
x-26 1 3 4 9 11 12 0
25 26 0
x-27 1 3 4 5 7 8 0
x-28 1 3 4 9 12 0
27 28 0
x-29 1 3 4 6 7 0
x-30 1 3 4 9 10 11 0
29 30 0
x-31 1 3 4 6 7 8 0
x-32 1 3 4 9 10 12 0
31 32 0
x-33 1 3 4 5 6 7 0
x-34 1 3 4 10 11 0
33 34 0
x-35 1 3 4 5 6 8 0
x-36 1 3 4 10 11 12 0
35 36 0
x-37 2 3 5 8 0
x-38 2 3 10 11 0
37 38 0
x-39 2 3 5 7 8 0
x-40 2 3 10 11 12 0
39 40 0
x-41 2 3 6 7 0
x-42 2 3 9 12 0
41 42 0
x-43 2 3 6 7 8 0
x-44 2 3 9 11 12 0
43 44 0
x-45 2 3 5 6 7 0
x-46 2 3 9 10 12 0
45 46 0
x-47 2 3 5 6 8 0
x-48 2 3 9 10 11 0
47 48 0
x-49 2 3 4 5 8 0
x-50 2 3 4 9 10 11 0
49 50 0
x-51 2 3 4 5 7 8 0
x-52 2 3 4 9 10 12 0
51 52 0
x-53 2 3 4 6 7 0
x-54 2 3 4 9 11 12 0
53 54 0
x-55 2 3 4 6 7 8 0
x-56 2 3 4 9 12 0
55 56 0
x-57 2 3 4 5 6 7 0
x-58 2 3 4 10 11 12 0
57 58 0
x-59 2 3 4 5 6 8 0
x-60 2 3 4 10 11 0
59 60 0
x-61 1 2 3 5 8 0
x-62 1 2 3 10 11 12 0
61 62 0
x-63 1 2 3 5 7 8 0
x-64 1 2 3 10 11 0
63 64 0
x-65 1 2 3 6 7 0
x-66 1 2 3 9 10 12 0
65 66 0
x-67 1 2 3 6 7 8 0
x-68 1 2 3 9 10 11 0
67 68 0
x-69 1 2 3 5 6 7 0
x-70 1 2 3 9 12 0
69 70 0
x-71 1 2 3 5 6 8 0
x-72 1 2 3 9 11 12 0
71 72 0
x-73 1 2 4 5 8 0
x-74 1 2 4 9 10 12 0
73 74 0
x-75 1 2 4 5 7 8 0
x-76 1 2 4 9 10 11 0
75 76 0
x-77 1 2 4 6 7 0
x-78 1 2 4 10 11 12 0
77 78 0
x-79 1 2 4 6 7 8 0
x-80 1 2 4 10 11 0
79 80 0
x-81 1 2 4 5 6 7 0
x-82 1 2 4 9 11 12 0
81 82 0
x-83 1 2 4 5 6 8 0
x-84 1 2 4 9 12 0
83 84 0
