p cnf 672 864
x-25 1 4 5 8 9 12 0
x-26 1 4 13 16 17 20 0
x-27 5 8 13 16 21 24 0
25 26 27 0
x-28 1 4 5 8 9 11 12 0
x-29 1 4 13 16 17 19 20 0
x-30 5 8 13 16 21 23 24 0
28 29 30 0
x-31 1 4 5 8 10 11 0
x-32 1 4 13 16 18 19 0
x-33 5 8 13 16 22 23 0
31 32 33 0
x-34 1 4 5 8 10 11 12 0
x-35 1 4 13 16 18 19 20 0
x-36 5 8 13 16 22 23 24 0
34 35 36 0
x-37 1 4 5 8 9 10 11 0
x-38 1 4 13 16 17 18 19 0
x-39 5 8 13 16 21 22 23 0
37 38 39 0
x-40 1 4 5 8 9 10 12 0
x-41 1 4 13 16 17 18 20 0
x-42 5 8 13 16 21 22 24 0
40 41 42 0
x-43 1 4 5 7 8 9 12 0
x-44 1 4 13 15 16 17 20 0
x-45 5 7 8 13 15 16 21 23 24 0
43 44 45 0
x-46 1 4 5 7 8 9 11 12 0
x-47 1 4 13 15 16 17 19 20 0
x-48 5 7 8 13 15 16 21 24 0
46 47 48 0
x-49 1 4 5 7 8 10 11 0
x-50 1 4 13 15 16 18 19 0
x-51 5 7 8 13 15 16 21 22 23 0
49 50 51 0
x-52 1 4 5 7 8 10 11 12 0
x-53 1 4 13 15 16 18 19 20 0
x-54 5 7 8 13 15 16 21 22 24 0
52 53 54 0
x-55 1 4 5 7 8 9 10 11 0
x-56 1 4 13 15 16 17 18 19 0
x-57 5 7 8 13 15 16 22 23 0
55 56 57 0
x-58 1 4 5 7 8 9 10 12 0
x-59 1 4 13 15 16 17 18 20 0
x-60 5 7 8 13 15 16 22 23 24 0
58 59 60 0
x-61 1 4 6 7 9 12 0
x-62 1 4 14 15 17 20 0
x-63 6 7 14 15 22 23 0
61 62 63 0
x-64 1 4 6 7 9 11 12 0
x-65 1 4 14 15 17 19 20 0
x-66 6 7 14 15 22 23 24 0
64 65 66 0
x-67 1 4 6 7 10 11 0
x-68 1 4 14 15 18 19 0
x-69 6 7 14 15 21 24 0
67 68 69 0
x-70 1 4 6 7 10 11 12 0
x-71 1 4 14 15 18 19 20 0
x-72 6 7 14 15 21 23 24 0
70 71 72 0
x-73 1 4 6 7 9 10 11 0
x-74 1 4 14 15 17 18 19 0
x-75 6 7 14 15 21 22 24 0
73 74 75 0
x-76 1 4 6 7 9 10 12 0
x-77 1 4 14 15 17 18 20 0
x-78 6 7 14 15 21 22 23 0
76 77 78 0
x-79 1 4 6 7 8 9 12 0
x-80 1 4 14 15 16 17 20 0
x-81 6 7 8 14 15 16 21 22 23 0
79 80 81 0
x-82 1 4 6 7 8 9 11 12 0
x-83 1 4 14 15 16 17 19 20 0
x-84 6 7 8 14 15 16 21 22 24 0
82 83 84 0
x-85 1 4 6 7 8 10 11 0
x-86 1 4 14 15 16 18 19 0
x-87 6 7 8 14 15 16 21 23 24 0
85 86 87 0
x-88 1 4 6 7 8 10 11 12 0
x-89 1 4 14 15 16 18 19 20 0
x-90 6 7 8 14 15 16 21 24 0
88 89 90 0
x-91 1 4 6 7 8 9 10 11 0
x-92 1 4 14 15 16 17 18 19 0
x-93 6 7 8 14 15 16 22 23 24 0
91 92 93 0
x-94 1 4 6 7 8 9 10 12 0
x-95 1 4 14 15 16 17 18 20 0
x-96 6 7 8 14 15 16 22 23 0
94 95 96 0
x-97 1 4 5 6 7 9 12 0
x-98 1 4 13 14 15 17 20 0
x-99 5 6 7 13 14 15 22 23 24 0
97 98 99 0
x-100 1 4 5 6 7 9 11 12 0
x-101 1 4 13 14 15 17 19 20 0
x-102 5 6 7 13 14 15 22 23 0
100 101 102 0
x-103 1 4 5 6 7 10 11 0
x-104 1 4 13 14 15 18 19 0
x-105 5 6 7 13 14 15 21 22 24 0
103 104 105 0
x-106 1 4 5 6 7 10 11 12 0
x-107 1 4 13 14 15 18 19 20 0
x-108 5 6 7 13 14 15 21 22 23 0
106 107 108 0
x-109 1 4 5 6 7 9 10 11 0
x-110 1 4 13 14 15 17 18 19 0
x-111 5 6 7 13 14 15 21 24 0
109 110 111 0
x-112 1 4 5 6 7 9 10 12 0
x-113 1 4 13 14 15 17 18 20 0
x-114 5 6 7 13 14 15 21 23 24 0
112 113 114 0
x-115 1 4 5 6 8 9 12 0
x-116 1 4 13 14 16 17 20 0
x-117 5 6 8 13 14 16 21 22 24 0
115 116 117 0
x-118 1 4 5 6 8 9 11 12 0
x-119 1 4 13 14 16 17 19 20 0
x-120 5 6 8 13 14 16 21 22 23 0
118 119 120 0
x-121 1 4 5 6 8 10 11 0
x-122 1 4 13 14 16 18 19 0
x-123 5 6 8 13 14 16 22 23 24 0
121 122 123 0
x-124 1 4 5 6 8 10 11 12 0
x-125 1 4 13 14 16 18 19 20 0
x-126 5 6 8 13 14 16 22 23 0
124 125 126 0
x-127 1 4 5 6 8 9 10 11 0
x-128 1 4 13 14 16 17 18 19 0
x-129 5 6 8 13 14 16 21 23 24 0
127 128 129 0
x-130 1 4 5 6 8 9 10 12 0
x-131 1 4 13 14 16 17 18 20 0
x-132 5 6 8 13 14 16 21 24 0
130 131 132 0
x-133 1 3 4 5 8 9 12 0
x-134 1 3 4 13 15 16 17 19 20 0
x-135 5 8 13 15 16 21 24 0
133 134 135 0
x-136 1 3 4 5 8 9 11 12 0
x-137 1 3 4 13 15 16 17 20 0
x-138 5 8 13 15 16 21 23 24 0
136 137 138 0
x-139 1 3 4 5 8 10 11 0
x-140 1 3 4 13 15 16 17 18 19 0
x-141 5 8 13 15 16 22 23 0
139 140 141 0
x-142 1 3 4 5 8 10 11 12 0
x-143 1 3 4 13 15 16 17 18 20 0
x-144 5 8 13 15 16 22 23 24 0
142 143 144 0
x-145 1 3 4 5 8 9 10 11 0
x-146 1 3 4 13 15 16 18 19 0
x-147 5 8 13 15 16 21 22 23 0
145 146 147 0
x-148 1 3 4 5 8 9 10 12 0
x-149 1 3 4 13 15 16 18 19 20 0
x-150 5 8 13 15 16 21 22 24 0
148 149 150 0
x-151 1 3 4 5 7 8 9 12 0
x-152 1 3 4 13 16 17 19 20 0
x-153 5 7 8 13 16 21 23 24 0
151 152 153 0
x-154 1 3 4 5 7 8 9 11 12 0
x-155 1 3 4 13 16 17 20 0
x-156 5 7 8 13 16 21 24 0
154 155 156 0
x-157 1 3 4 5 7 8 10 11 0
x-158 1 3 4 13 16 17 18 19 0
x-159 5 7 8 13 16 21 22 23 0
157 158 159 0
x-160 1 3 4 5 7 8 10 11 12 0
x-161 1 3 4 13 16 17 18 20 0
x-162 5 7 8 13 16 21 22 24 0
160 161 162 0
x-163 1 3 4 5 7 8 9 10 11 0
x-164 1 3 4 13 16 18 19 0
x-165 5 7 8 13 16 22 23 0
163 164 165 0
x-166 1 3 4 5 7 8 9 10 12 0
x-167 1 3 4 13 16 18 19 20 0
x-168 5 7 8 13 16 22 23 24 0
166 167 168 0
x-169 1 3 4 6 7 9 12 0
x-170 1 3 4 13 14 15 17 19 20 0
x-171 6 7 13 14 15 22 23 0
169 170 171 0
x-172 1 3 4 6 7 9 11 12 0
x-173 1 3 4 13 14 15 17 20 0
x-174 6 7 13 14 15 22 23 24 0
172 173 174 0
x-175 1 3 4 6 7 10 11 0
x-176 1 3 4 13 14 15 17 18 19 0
x-177 6 7 13 14 15 21 24 0
175 176 177 0
x-178 1 3 4 6 7 10 11 12 0
x-179 1 3 4 13 14 15 17 18 20 0
x-180 6 7 13 14 15 21 23 24 0
178 179 180 0
x-181 1 3 4 6 7 9 10 11 0
x-182 1 3 4 13 14 15 18 19 0
x-183 6 7 13 14 15 21 22 24 0
181 182 183 0
x-184 1 3 4 6 7 9 10 12 0
x-185 1 3 4 13 14 15 18 19 20 0
x-186 6 7 13 14 15 21 22 23 0
184 185 186 0
x-187 1 3 4 6 7 8 9 12 0
x-188 1 3 4 13 14 16 17 19 20 0
x-189 6 7 8 13 14 16 21 22 23 0
187 188 189 0
x-190 1 3 4 6 7 8 9 11 12 0
x-191 1 3 4 13 14 16 17 20 0
x-192 6 7 8 13 14 16 21 22 24 0
190 191 192 0
x-193 1 3 4 6 7 8 10 11 0
x-194 1 3 4 13 14 16 17 18 19 0
x-195 6 7 8 13 14 16 21 23 24 0
193 194 195 0
x-196 1 3 4 6 7 8 10 11 12 0
x-197 1 3 4 13 14 16 17 18 20 0
x-198 6 7 8 13 14 16 21 24 0
196 197 198 0
x-199 1 3 4 6 7 8 9 10 11 0
x-200 1 3 4 13 14 16 18 19 0
x-201 6 7 8 13 14 16 22 23 24 0
199 200 201 0
x-202 1 3 4 6 7 8 9 10 12 0
x-203 1 3 4 13 14 16 18 19 20 0
x-204 6 7 8 13 14 16 22 23 0
202 203 204 0
x-205 1 3 4 5 6 7 9 12 0
x-206 1 3 4 14 15 17 19 20 0
x-207 5 6 7 14 15 22 23 24 0
205 206 207 0
x-208 1 3 4 5 6 7 9 11 12 0
x-209 1 3 4 14 15 17 20 0
x-210 5 6 7 14 15 22 23 0
208 209 210 0
x-211 1 3 4 5 6 7 10 11 0
x-212 1 3 4 14 15 17 18 19 0
x-213 5 6 7 14 15 21 22 24 0
211 212 213 0
x-214 1 3 4 5 6 7 10 11 12 0
x-215 1 3 4 14 15 17 18 20 0
x-216 5 6 7 14 15 21 22 23 0
214 215 216 0
x-217 1 3 4 5 6 7 9 10 11 0
x-218 1 3 4 14 15 18 19 0
x-219 5 6 7 14 15 21 24 0
217 218 219 0
x-220 1 3 4 5 6 7 9 10 12 0
x-221 1 3 4 14 15 18 19 20 0
x-222 5 6 7 14 15 21 23 24 0
220 221 222 0
x-223 1 3 4 5 6 8 9 12 0
x-224 1 3 4 14 15 16 17 19 20 0
x-225 5 6 8 14 15 16 21 22 24 0
223 224 225 0
x-226 1 3 4 5 6 8 9 11 12 0
x-227 1 3 4 14 15 16 17 20 0
x-228 5 6 8 14 15 16 21 22 23 0
226 227 228 0
x-229 1 3 4 5 6 8 10 11 0
x-230 1 3 4 14 15 16 17 18 19 0
x-231 5 6 8 14 15 16 22 23 24 0
229 230 231 0
x-232 1 3 4 5 6 8 10 11 12 0
x-233 1 3 4 14 15 16 17 18 20 0
x-234 5 6 8 14 15 16 22 23 0
232 233 234 0
x-235 1 3 4 5 6 8 9 10 11 0
x-236 1 3 4 14 15 16 18 19 0
x-237 5 6 8 14 15 16 21 23 24 0
235 236 237 0
x-238 1 3 4 5 6 8 9 10 12 0
x-239 1 3 4 14 15 16 18 19 20 0
x-240 5 6 8 14 15 16 21 24 0
238 239 240 0
x-241 2 3 5 8 9 12 0
x-242 2 3 14 15 18 19 0
x-243 5 8 14 15 21 24 0
241 242 243 0
x-244 2 3 5 8 9 11 12 0
x-245 2 3 14 15 18 19 20 0
x-246 5 8 14 15 21 23 24 0
244 245 246 0
x-247 2 3 5 8 10 11 0
x-248 2 3 14 15 17 20 0
x-249 5 8 14 15 22 23 0
247 248 249 0
x-250 2 3 5 8 10 11 12 0
x-251 2 3 14 15 17 19 20 0
x-252 5 8 14 15 22 23 24 0
250 251 252 0
x-253 2 3 5 8 9 10 11 0
x-254 2 3 14 15 17 18 20 0
x-255 5 8 14 15 21 22 23 0
253 254 255 0
x-256 2 3 5 8 9 10 12 0
x-257 2 3 14 15 17 18 19 0
x-258 5 8 14 15 21 22 24 0
256 257 258 0
x-259 2 3 5 7 8 9 12 0
x-260 2 3 14 15 16 18 19 0
x-261 5 7 8 14 15 16 21 23 24 0
259 260 261 0
x-262 2 3 5 7 8 9 11 12 0
x-263 2 3 14 15 16 18 19 20 0
x-264 5 7 8 14 15 16 21 24 0
262 263 264 0
x-265 2 3 5 7 8 10 11 0
x-266 2 3 14 15 16 17 20 0
x-267 5 7 8 14 15 16 21 22 23 0
265 266 267 0
x-268 2 3 5 7 8 10 11 12 0
x-269 2 3 14 15 16 17 19 20 0
x-270 5 7 8 14 15 16 21 22 24 0
268 269 270 0
x-271 2 3 5 7 8 9 10 11 0
x-272 2 3 14 15 16 17 18 20 0
x-273 5 7 8 14 15 16 22 23 0
271 272 273 0
x-274 2 3 5 7 8 9 10 12 0
x-275 2 3 14 15 16 17 18 19 0
x-276 5 7 8 14 15 16 22 23 24 0
274 275 276 0
x-277 2 3 6 7 9 12 0
x-278 2 3 13 16 18 19 0
x-279 6 7 13 16 22 23 0
277 278 279 0
x-280 2 3 6 7 9 11 12 0
x-281 2 3 13 16 18 19 20 0
x-282 6 7 13 16 22 23 24 0
280 281 282 0
x-283 2 3 6 7 10 11 0
x-284 2 3 13 16 17 20 0
x-285 6 7 13 16 21 24 0
283 284 285 0
x-286 2 3 6 7 10 11 12 0
x-287 2 3 13 16 17 19 20 0
x-288 6 7 13 16 21 23 24 0
286 287 288 0
x-289 2 3 6 7 9 10 11 0
x-290 2 3 13 16 17 18 20 0
x-291 6 7 13 16 21 22 24 0
289 290 291 0
x-292 2 3 6 7 9 10 12 0
x-293 2 3 13 16 17 18 19 0
x-294 6 7 13 16 21 22 23 0
292 293 294 0
x-295 2 3 6 7 8 9 12 0
x-296 2 3 13 15 16 18 19 0
x-297 6 7 8 13 15 16 21 22 23 0
295 296 297 0
x-298 2 3 6 7 8 9 11 12 0
x-299 2 3 13 15 16 18 19 20 0
x-300 6 7 8 13 15 16 21 22 24 0
298 299 300 0
x-301 2 3 6 7 8 10 11 0
x-302 2 3 13 15 16 17 20 0
x-303 6 7 8 13 15 16 21 23 24 0
301 302 303 0
x-304 2 3 6 7 8 10 11 12 0
x-305 2 3 13 15 16 17 19 20 0
x-306 6 7 8 13 15 16 21 24 0
304 305 306 0
x-307 2 3 6 7 8 9 10 11 0
x-308 2 3 13 15 16 17 18 20 0
x-309 6 7 8 13 15 16 22 23 24 0
307 308 309 0
x-310 2 3 6 7 8 9 10 12 0
x-311 2 3 13 15 16 17 18 19 0
x-312 6 7 8 13 15 16 22 23 0
310 311 312 0
x-313 2 3 5 6 7 9 12 0
x-314 2 3 13 14 16 18 19 0
x-315 5 6 7 13 14 16 22 23 24 0
313 314 315 0
x-316 2 3 5 6 7 9 11 12 0
x-317 2 3 13 14 16 18 19 20 0
x-318 5 6 7 13 14 16 22 23 0
316 317 318 0
x-319 2 3 5 6 7 10 11 0
x-320 2 3 13 14 16 17 20 0
x-321 5 6 7 13 14 16 21 22 24 0
319 320 321 0
x-322 2 3 5 6 7 10 11 12 0
x-323 2 3 13 14 16 17 19 20 0
x-324 5 6 7 13 14 16 21 22 23 0
322 323 324 0
x-325 2 3 5 6 7 9 10 11 0
x-326 2 3 13 14 16 17 18 20 0
x-327 5 6 7 13 14 16 21 24 0
325 326 327 0
x-328 2 3 5 6 7 9 10 12 0
x-329 2 3 13 14 16 17 18 19 0
x-330 5 6 7 13 14 16 21 23 24 0
328 329 330 0
x-331 2 3 5 6 8 9 12 0
x-332 2 3 13 14 15 18 19 0
x-333 5 6 8 13 14 15 21 22 24 0
331 332 333 0
x-334 2 3 5 6 8 9 11 12 0
x-335 2 3 13 14 15 18 19 20 0
x-336 5 6 8 13 14 15 21 22 23 0
334 335 336 0
x-337 2 3 5 6 8 10 11 0
x-338 2 3 13 14 15 17 20 0
x-339 5 6 8 13 14 15 22 23 24 0
337 338 339 0
x-340 2 3 5 6 8 10 11 12 0
x-341 2 3 13 14 15 17 19 20 0
x-342 5 6 8 13 14 15 22 23 0
340 341 342 0
x-343 2 3 5 6 8 9 10 11 0
x-344 2 3 13 14 15 17 18 20 0
x-345 5 6 8 13 14 15 21 23 24 0
343 344 345 0
x-346 2 3 5 6 8 9 10 12 0
x-347 2 3 13 14 15 17 18 19 0
x-348 5 6 8 13 14 15 21 24 0
346 347 348 0
x-349 2 3 4 5 8 9 12 0
x-350 2 3 4 13 14 15 17 18 19 0
x-351 5 8 13 14 15 21 24 0
349 350 351 0
x-352 2 3 4 5 8 9 11 12 0
x-353 2 3 4 13 14 15 17 18 20 0
x-354 5 8 13 14 15 21 23 24 0
352 353 354 0
x-355 2 3 4 5 8 10 11 0
x-356 2 3 4 13 14 15 17 19 20 0
x-357 5 8 13 14 15 22 23 0
355 356 357 0
x-358 2 3 4 5 8 10 11 12 0
x-359 2 3 4 13 14 15 17 20 0
x-360 5 8 13 14 15 22 23 24 0
358 359 360 0
x-361 2 3 4 5 8 9 10 11 0
x-362 2 3 4 13 14 15 18 19 20 0
x-363 5 8 13 14 15 21 22 23 0
361 362 363 0
x-364 2 3 4 5 8 9 10 12 0
x-365 2 3 4 13 14 15 18 19 0
x-366 5 8 13 14 15 21 22 24 0
364 365 366 0
x-367 2 3 4 5 7 8 9 12 0
x-368 2 3 4 13 14 16 17 18 19 0
x-369 5 7 8 13 14 16 21 23 24 0
367 368 369 0
x-370 2 3 4 5 7 8 9 11 12 0
x-371 2 3 4 13 14 16 17 18 20 0
x-372 5 7 8 13 14 16 21 24 0
370 371 372 0
x-373 2 3 4 5 7 8 10 11 0
x-374 2 3 4 13 14 16 17 19 20 0
x-375 5 7 8 13 14 16 21 22 23 0
373 374 375 0
x-376 2 3 4 5 7 8 10 11 12 0
x-377 2 3 4 13 14 16 17 20 0
x-378 5 7 8 13 14 16 21 22 24 0
376 377 378 0
x-379 2 3 4 5 7 8 9 10 11 0
x-380 2 3 4 13 14 16 18 19 20 0
x-381 5 7 8 13 14 16 22 23 0
379 380 381 0
x-382 2 3 4 5 7 8 9 10 12 0
x-383 2 3 4 13 14 16 18 19 0
x-384 5 7 8 13 14 16 22 23 24 0
382 383 384 0
x-385 2 3 4 6 7 9 12 0
x-386 2 3 4 13 15 16 17 18 19 0
x-387 6 7 13 15 16 22 23 0
385 386 387 0
x-388 2 3 4 6 7 9 11 12 0
x-389 2 3 4 13 15 16 17 18 20 0
x-390 6 7 13 15 16 22 23 24 0
388 389 390 0
x-391 2 3 4 6 7 10 11 0
x-392 2 3 4 13 15 16 17 19 20 0
x-393 6 7 13 15 16 21 24 0
391 392 393 0
x-394 2 3 4 6 7 10 11 12 0
x-395 2 3 4 13 15 16 17 20 0
x-396 6 7 13 15 16 21 23 24 0
394 395 396 0
x-397 2 3 4 6 7 9 10 11 0
x-398 2 3 4 13 15 16 18 19 20 0
x-399 6 7 13 15 16 21 22 24 0
397 398 399 0
x-400 2 3 4 6 7 9 10 12 0
x-401 2 3 4 13 15 16 18 19 0
x-402 6 7 13 15 16 21 22 23 0
400 401 402 0
x-403 2 3 4 6 7 8 9 12 0
x-404 2 3 4 13 16 17 18 19 0
x-405 6 7 8 13 16 21 22 23 0
403 404 405 0
x-406 2 3 4 6 7 8 9 11 12 0
x-407 2 3 4 13 16 17 18 20 0
x-408 6 7 8 13 16 21 22 24 0
406 407 408 0
x-409 2 3 4 6 7 8 10 11 0
x-410 2 3 4 13 16 17 19 20 0
x-411 6 7 8 13 16 21 23 24 0
409 410 411 0
x-412 2 3 4 6 7 8 10 11 12 0
x-413 2 3 4 13 16 17 20 0
x-414 6 7 8 13 16 21 24 0
412 413 414 0
x-415 2 3 4 6 7 8 9 10 11 0
x-416 2 3 4 13 16 18 19 20 0
x-417 6 7 8 13 16 22 23 24 0
415 416 417 0
x-418 2 3 4 6 7 8 9 10 12 0
x-419 2 3 4 13 16 18 19 0
x-420 6 7 8 13 16 22 23 0
418 419 420 0
x-421 2 3 4 5 6 7 9 12 0
x-422 2 3 4 14 15 16 17 18 19 0
x-423 5 6 7 14 15 16 22 23 24 0
421 422 423 0
x-424 2 3 4 5 6 7 9 11 12 0
x-425 2 3 4 14 15 16 17 18 20 0
x-426 5 6 7 14 15 16 22 23 0
424 425 426 0
x-427 2 3 4 5 6 7 10 11 0
x-428 2 3 4 14 15 16 17 19 20 0
x-429 5 6 7 14 15 16 21 22 24 0
427 428 429 0
x-430 2 3 4 5 6 7 10 11 12 0
x-431 2 3 4 14 15 16 17 20 0
x-432 5 6 7 14 15 16 21 22 23 0
430 431 432 0
x-433 2 3 4 5 6 7 9 10 11 0
x-434 2 3 4 14 15 16 18 19 20 0
x-435 5 6 7 14 15 16 21 24 0
433 434 435 0
x-436 2 3 4 5 6 7 9 10 12 0
x-437 2 3 4 14 15 16 18 19 0
x-438 5 6 7 14 15 16 21 23 24 0
436 437 438 0
x-439 2 3 4 5 6 8 9 12 0
x-440 2 3 4 14 15 17 18 19 0
x-441 5 6 8 14 15 21 22 24 0
439 440 441 0
x-442 2 3 4 5 6 8 9 11 12 0
x-443 2 3 4 14 15 17 18 20 0
x-444 5 6 8 14 15 21 22 23 0
442 443 444 0
x-445 2 3 4 5 6 8 10 11 0
x-446 2 3 4 14 15 17 19 20 0
x-447 5 6 8 14 15 22 23 24 0
445 446 447 0
x-448 2 3 4 5 6 8 10 11 12 0
x-449 2 3 4 14 15 17 20 0
x-450 5 6 8 14 15 22 23 0
448 449 450 0
x-451 2 3 4 5 6 8 9 10 11 0
x-452 2 3 4 14 15 18 19 20 0
x-453 5 6 8 14 15 21 23 24 0
451 452 453 0
x-454 2 3 4 5 6 8 9 10 12 0
x-455 2 3 4 14 15 18 19 0
x-456 5 6 8 14 15 21 24 0
454 455 456 0
x-457 1 2 3 5 8 9 12 0
x-458 1 2 3 14 15 16 18 19 20 0
x-459 5 8 14 15 16 21 24 0
457 458 459 0
x-460 1 2 3 5 8 9 11 12 0
x-461 1 2 3 14 15 16 18 19 0
x-462 5 8 14 15 16 21 23 24 0
460 461 462 0
x-463 1 2 3 5 8 10 11 0
x-464 1 2 3 14 15 16 17 18 20 0
x-465 5 8 14 15 16 22 23 0
463 464 465 0
x-466 1 2 3 5 8 10 11 12 0
x-467 1 2 3 14 15 16 17 18 19 0
x-468 5 8 14 15 16 22 23 24 0
466 467 468 0
x-469 1 2 3 5 8 9 10 11 0
x-470 1 2 3 14 15 16 17 20 0
x-471 5 8 14 15 16 21 22 23 0
469 470 471 0
x-472 1 2 3 5 8 9 10 12 0
x-473 1 2 3 14 15 16 17 19 20 0
x-474 5 8 14 15 16 21 22 24 0
472 473 474 0
x-475 1 2 3 5 7 8 9 12 0
x-476 1 2 3 14 15 18 19 20 0
x-477 5 7 8 14 15 21 23 24 0
475 476 477 0
x-478 1 2 3 5 7 8 9 11 12 0
x-479 1 2 3 14 15 18 19 0
x-480 5 7 8 14 15 21 24 0
478 479 480 0
x-481 1 2 3 5 7 8 10 11 0
x-482 1 2 3 14 15 17 18 20 0
x-483 5 7 8 14 15 21 22 23 0
481 482 483 0
x-484 1 2 3 5 7 8 10 11 12 0
x-485 1 2 3 14 15 17 18 19 0
x-486 5 7 8 14 15 21 22 24 0
484 485 486 0
x-487 1 2 3 5 7 8 9 10 11 0
x-488 1 2 3 14 15 17 20 0
x-489 5 7 8 14 15 22 23 0
487 488 489 0
x-490 1 2 3 5 7 8 9 10 12 0
x-491 1 2 3 14 15 17 19 20 0
x-492 5 7 8 14 15 22 23 24 0
490 491 492 0
x-493 1 2 3 6 7 9 12 0
x-494 1 2 3 13 14 16 18 19 20 0
x-495 6 7 13 14 16 22 23 0
493 494 495 0
x-496 1 2 3 6 7 9 11 12 0
x-497 1 2 3 13 14 16 18 19 0
x-498 6 7 13 14 16 22 23 24 0
496 497 498 0
x-499 1 2 3 6 7 10 11 0
x-500 1 2 3 13 14 16 17 18 20 0
x-501 6 7 13 14 16 21 24 0
499 500 501 0
x-502 1 2 3 6 7 10 11 12 0
x-503 1 2 3 13 14 16 17 18 19 0
x-504 6 7 13 14 16 21 23 24 0
502 503 504 0
x-505 1 2 3 6 7 9 10 11 0
x-506 1 2 3 13 14 16 17 20 0
x-507 6 7 13 14 16 21 22 24 0
505 506 507 0
x-508 1 2 3 6 7 9 10 12 0
x-509 1 2 3 13 14 16 17 19 20 0
x-510 6 7 13 14 16 21 22 23 0
508 509 510 0
x-511 1 2 3 6 7 8 9 12 0
x-512 1 2 3 13 14 15 18 19 20 0
x-513 6 7 8 13 14 15 21 22 23 0
511 512 513 0
x-514 1 2 3 6 7 8 9 11 12 0
x-515 1 2 3 13 14 15 18 19 0
x-516 6 7 8 13 14 15 21 22 24 0
514 515 516 0
x-517 1 2 3 6 7 8 10 11 0
x-518 1 2 3 13 14 15 17 18 20 0
x-519 6 7 8 13 14 15 21 23 24 0
517 518 519 0
x-520 1 2 3 6 7 8 10 11 12 0
x-521 1 2 3 13 14 15 17 18 19 0
x-522 6 7 8 13 14 15 21 24 0
520 521 522 0
x-523 1 2 3 6 7 8 9 10 11 0
x-524 1 2 3 13 14 15 17 20 0
x-525 6 7 8 13 14 15 22 23 24 0
523 524 525 0
x-526 1 2 3 6 7 8 9 10 12 0
x-527 1 2 3 13 14 15 17 19 20 0
x-528 6 7 8 13 14 15 22 23 0
526 527 528 0
x-529 1 2 3 5 6 7 9 12 0
x-530 1 2 3 13 16 18 19 20 0
x-531 5 6 7 13 16 22 23 24 0
529 530 531 0
x-532 1 2 3 5 6 7 9 11 12 0
x-533 1 2 3 13 16 18 19 0
x-534 5 6 7 13 16 22 23 0
532 533 534 0
x-535 1 2 3 5 6 7 10 11 0
x-536 1 2 3 13 16 17 18 20 0
x-537 5 6 7 13 16 21 22 24 0
535 536 537 0
x-538 1 2 3 5 6 7 10 11 12 0
x-539 1 2 3 13 16 17 18 19 0
x-540 5 6 7 13 16 21 22 23 0
538 539 540 0
x-541 1 2 3 5 6 7 9 10 11 0
x-542 1 2 3 13 16 17 20 0
x-543 5 6 7 13 16 21 24 0
541 542 543 0
x-544 1 2 3 5 6 7 9 10 12 0
x-545 1 2 3 13 16 17 19 20 0
x-546 5 6 7 13 16 21 23 24 0
544 545 546 0
x-547 1 2 3 5 6 8 9 12 0
x-548 1 2 3 13 15 16 18 19 20 0
x-549 5 6 8 13 15 16 21 22 24 0
547 548 549 0
x-550 1 2 3 5 6 8 9 11 12 0
x-551 1 2 3 13 15 16 18 19 0
x-552 5 6 8 13 15 16 21 22 23 0
550 551 552 0
x-553 1 2 3 5 6 8 10 11 0
x-554 1 2 3 13 15 16 17 18 20 0
x-555 5 6 8 13 15 16 22 23 24 0
553 554 555 0
x-556 1 2 3 5 6 8 10 11 12 0
x-557 1 2 3 13 15 16 17 18 19 0
x-558 5 6 8 13 15 16 22 23 0
556 557 558 0
x-559 1 2 3 5 6 8 9 10 11 0
x-560 1 2 3 13 15 16 17 20 0
x-561 5 6 8 13 15 16 21 23 24 0
559 560 561 0
x-562 1 2 3 5 6 8 9 10 12 0
x-563 1 2 3 13 15 16 17 19 20 0
x-564 5 6 8 13 15 16 21 24 0
562 563 564 0
x-565 1 2 4 5 8 9 12 0
x-566 1 2 4 13 14 16 17 18 20 0
x-567 5 8 13 14 16 21 24 0
565 566 567 0
x-568 1 2 4 5 8 9 11 12 0
x-569 1 2 4 13 14 16 17 18 19 0
x-570 5 8 13 14 16 21 23 24 0
568 569 570 0
x-571 1 2 4 5 8 10 11 0
x-572 1 2 4 13 14 16 18 19 20 0
x-573 5 8 13 14 16 22 23 0
571 572 573 0
x-574 1 2 4 5 8 10 11 12 0
x-575 1 2 4 13 14 16 18 19 0
x-576 5 8 13 14 16 22 23 24 0
574 575 576 0
x-577 1 2 4 5 8 9 10 11 0
x-578 1 2 4 13 14 16 17 19 20 0
x-579 5 8 13 14 16 21 22 23 0
577 578 579 0
x-580 1 2 4 5 8 9 10 12 0
x-581 1 2 4 13 14 16 17 20 0
x-582 5 8 13 14 16 21 22 24 0
580 581 582 0
x-583 1 2 4 5 7 8 9 12 0
x-584 1 2 4 13 14 15 17 18 20 0
x-585 5 7 8 13 14 15 21 23 24 0
583 584 585 0
x-586 1 2 4 5 7 8 9 11 12 0
x-587 1 2 4 13 14 15 17 18 19 0
x-588 5 7 8 13 14 15 21 24 0
586 587 588 0
x-589 1 2 4 5 7 8 10 11 0
x-590 1 2 4 13 14 15 18 19 20 0
x-591 5 7 8 13 14 15 21 22 23 0
589 590 591 0
x-592 1 2 4 5 7 8 10 11 12 0
x-593 1 2 4 13 14 15 18 19 0
x-594 5 7 8 13 14 15 21 22 24 0
592 593 594 0
x-595 1 2 4 5 7 8 9 10 11 0
x-596 1 2 4 13 14 15 17 19 20 0
x-597 5 7 8 13 14 15 22 23 0
595 596 597 0
x-598 1 2 4 5 7 8 9 10 12 0
x-599 1 2 4 13 14 15 17 20 0
x-600 5 7 8 13 14 15 22 23 24 0
598 599 600 0
x-601 1 2 4 6 7 9 12 0
x-602 1 2 4 14 15 16 17 18 20 0
x-603 6 7 14 15 16 22 23 0
601 602 603 0
x-604 1 2 4 6 7 9 11 12 0
x-605 1 2 4 14 15 16 17 18 19 0
x-606 6 7 14 15 16 22 23 24 0
604 605 606 0
x-607 1 2 4 6 7 10 11 0
x-608 1 2 4 14 15 16 18 19 20 0
x-609 6 7 14 15 16 21 24 0
607 608 609 0
x-610 1 2 4 6 7 10 11 12 0
x-611 1 2 4 14 15 16 18 19 0
x-612 6 7 14 15 16 21 23 24 0
610 611 612 0
x-613 1 2 4 6 7 9 10 11 0
x-614 1 2 4 14 15 16 17 19 20 0
x-615 6 7 14 15 16 21 22 24 0
613 614 615 0
x-616 1 2 4 6 7 9 10 12 0
x-617 1 2 4 14 15 16 17 20 0
x-618 6 7 14 15 16 21 22 23 0
616 617 618 0
x-619 1 2 4 6 7 8 9 12 0
x-620 1 2 4 14 15 17 18 20 0
x-621 6 7 8 14 15 21 22 23 0
619 620 621 0
x-622 1 2 4 6 7 8 9 11 12 0
x-623 1 2 4 14 15 17 18 19 0
x-624 6 7 8 14 15 21 22 24 0
622 623 624 0
x-625 1 2 4 6 7 8 10 11 0
x-626 1 2 4 14 15 18 19 20 0
x-627 6 7 8 14 15 21 23 24 0
625 626 627 0
x-628 1 2 4 6 7 8 10 11 12 0
x-629 1 2 4 14 15 18 19 0
x-630 6 7 8 14 15 21 24 0
628 629 630 0
x-631 1 2 4 6 7 8 9 10 11 0
x-632 1 2 4 14 15 17 19 20 0
x-633 6 7 8 14 15 22 23 24 0
631 632 633 0
x-634 1 2 4 6 7 8 9 10 12 0
x-635 1 2 4 14 15 17 20 0
x-636 6 7 8 14 15 22 23 0
634 635 636 0
x-637 1 2 4 5 6 7 9 12 0
x-638 1 2 4 13 15 16 17 18 20 0
x-639 5 6 7 13 15 16 22 23 24 0
637 638 639 0
x-640 1 2 4 5 6 7 9 11 12 0
x-641 1 2 4 13 15 16 17 18 19 0
x-642 5 6 7 13 15 16 22 23 0
640 641 642 0
x-643 1 2 4 5 6 7 10 11 0
x-644 1 2 4 13 15 16 18 19 20 0
x-645 5 6 7 13 15 16 21 22 24 0
643 644 645 0
x-646 1 2 4 5 6 7 10 11 12 0
x-647 1 2 4 13 15 16 18 19 0
x-648 5 6 7 13 15 16 21 22 23 0
646 647 648 0
x-649 1 2 4 5 6 7 9 10 11 0
x-650 1 2 4 13 15 16 17 19 20 0
x-651 5 6 7 13 15 16 21 24 0
649 650 651 0
x-652 1 2 4 5 6 7 9 10 12 0
x-653 1 2 4 13 15 16 17 20 0
x-654 5 6 7 13 15 16 21 23 24 0
652 653 654 0
x-655 1 2 4 5 6 8 9 12 0
x-656 1 2 4 13 16 17 18 20 0
x-657 5 6 8 13 16 21 22 24 0
655 656 657 0
x-658 1 2 4 5 6 8 9 11 12 0
x-659 1 2 4 13 16 17 18 19 0
x-660 5 6 8 13 16 21 22 23 0
658 659 660 0
x-661 1 2 4 5 6 8 10 11 0
x-662 1 2 4 13 16 18 19 20 0
x-663 5 6 8 13 16 22 23 24 0
661 662 663 0
x-664 1 2 4 5 6 8 10 11 12 0
x-665 1 2 4 13 16 18 19 0
x-666 5 6 8 13 16 22 23 0
664 665 666 0
x-667 1 2 4 5 6 8 9 10 11 0
x-668 1 2 4 13 16 17 19 20 0
x-669 5 6 8 13 16 21 23 24 0
667 668 669 0
x-670 1 2 4 5 6 8 9 10 12 0
x-671 1 2 4 13 16 17 20 0
x-672 5 6 8 13 16 21 24 0
670 671 672 0
