p cnf 5224 6480
x-41 1 4 5 8 9 12 13 16 0
x-42 1 4 17 20 21 24 25 28 0
x-43 5 8 17 20 29 32 33 36 0
x-44 9 12 21 24 29 32 37 40 0
41 42 43 44 0
x-45 1 4 5 8 9 12 13 15 16 0
x-46 1 4 17 20 21 24 25 27 28 0
x-47 5 8 17 20 29 32 33 35 36 0
x-48 9 12 21 24 29 32 37 39 40 0
45 46 47 48 0
x-49 1 4 5 8 9 12 14 15 0
x-50 1 4 17 20 21 24 26 27 0
x-51 5 8 17 20 29 32 34 35 0
x-52 9 12 21 24 29 32 38 39 0
49 50 51 52 0
x-53 1 4 5 8 9 12 14 15 16 0
x-54 1 4 17 20 21 24 26 27 28 0
x-55 5 8 17 20 29 32 34 35 36 0
x-56 9 12 21 24 29 32 38 39 40 0
53 54 55 56 0
x-57 1 4 5 8 9 12 13 14 15 0
x-58 1 4 17 20 21 24 25 26 27 0
x-59 5 8 17 20 29 32 33 34 35 0
x-60 9 12 21 24 29 32 37 38 39 0
57 58 59 60 0
x-61 1 4 5 8 9 12 13 14 16 0
x-62 1 4 17 20 21 24 25 26 28 0
x-63 5 8 17 20 29 32 33 34 36 0
x-64 9 12 21 24 29 32 37 38 40 0
61 62 63 64 0
x-65 1 4 5 8 9 11 12 13 16 0
x-66 1 4 17 20 21 23 24 25 28 0
x-67 5 8 17 20 29 31 32 33 36 0
x-68 9 11 12 21 23 24 29 31 32 37 39 40 0
65 66 67 68 0
x-69 1 4 5 8 9 11 12 13 15 16 0
x-70 1 4 17 20 21 23 24 25 27 28 0
x-71 5 8 17 20 29 31 32 33 35 36 0
x-72 9 11 12 21 23 24 29 31 32 37 40 0
69 70 71 72 0
x-73 1 4 5 8 9 11 12 14 15 0
x-74 1 4 17 20 21 23 24 26 27 0
x-75 5 8 17 20 29 31 32 34 35 0
x-76 9 11 12 21 23 24 29 31 32 37 38 39 0
73 74 75 76 0
x-77 1 4 5 8 9 11 12 14 15 16 0
x-78 1 4 17 20 21 23 24 26 27 28 0
x-79 5 8 17 20 29 31 32 34 35 36 0
x-80 9 11 12 21 23 24 29 31 32 37 38 40 0
77 78 79 80 0
x-81 1 4 5 8 9 11 12 13 14 15 0
x-82 1 4 17 20 21 23 24 25 26 27 0
x-83 5 8 17 20 29 31 32 33 34 35 0
x-84 9 11 12 21 23 24 29 31 32 38 39 0
81 82 83 84 0
x-85 1 4 5 8 9 11 12 13 14 16 0
x-86 1 4 17 20 21 23 24 25 26 28 0
x-87 5 8 17 20 29 31 32 33 34 36 0
x-88 9 11 12 21 23 24 29 31 32 38 39 40 0
85 86 87 88 0
x-89 1 4 5 8 10 11 13 16 0
x-90 1 4 17 20 22 23 25 28 0
x-91 5 8 17 20 30 31 33 36 0
x-92 10 11 22 23 30 31 38 39 0
89 90 91 92 0
x-93 1 4 5 8 10 11 13 15 16 0
x-94 1 4 17 20 22 23 25 27 28 0
x-95 5 8 17 20 30 31 33 35 36 0
x-96 10 11 22 23 30 31 38 39 40 0
93 94 95 96 0
x-97 1 4 5 8 10 11 14 15 0
x-98 1 4 17 20 22 23 26 27 0
x-99 5 8 17 20 30 31 34 35 0
x-100 10 11 22 23 30 31 37 40 0
97 98 99 100 0
x-101 1 4 5 8 10 11 14 15 16 0
x-102 1 4 17 20 22 23 26 27 28 0
x-103 5 8 17 20 30 31 34 35 36 0
x-104 10 11 22 23 30 31 37 39 40 0
101 102 103 104 0
x-105 1 4 5 8 10 11 13 14 15 0
x-106 1 4 17 20 22 23 25 26 27 0
x-107 5 8 17 20 30 31 33 34 35 0
x-108 10 11 22 23 30 31 37 38 40 0
105 106 107 108 0
x-109 1 4 5 8 10 11 13 14 16 0
x-110 1 4 17 20 22 23 25 26 28 0
x-111 5 8 17 20 30 31 33 34 36 0
x-112 10 11 22 23 30 31 37 38 39 0
109 110 111 112 0
x-113 1 4 5 8 10 11 12 13 16 0
x-114 1 4 17 20 22 23 24 25 28 0
x-115 5 8 17 20 30 31 32 33 36 0
x-116 10 11 12 22 23 24 30 31 32 37 38 39 0
113 114 115 116 0
x-117 1 4 5 8 10 11 12 13 15 16 0
x-118 1 4 17 20 22 23 24 25 27 28 0
x-119 5 8 17 20 30 31 32 33 35 36 0
x-120 10 11 12 22 23 24 30 31 32 37 38 40 0
117 118 119 120 0
x-121 1 4 5 8 10 11 12 14 15 0
x-122 1 4 17 20 22 23 24 26 27 0
x-123 5 8 17 20 30 31 32 34 35 0
x-124 10 11 12 22 23 24 30 31 32 37 39 40 0
121 122 123 124 0
x-125 1 4 5 8 10 11 12 14 15 16 0
x-126 1 4 17 20 22 23 24 26 27 28 0
x-127 5 8 17 20 30 31 32 34 35 36 0
x-128 10 11 12 22 23 24 30 31 32 37 40 0
125 126 127 128 0
x-129 1 4 5 8 10 11 12 13 14 15 0
x-130 1 4 17 20 22 23 24 25 26 27 0
x-131 5 8 17 20 30 31 32 33 34 35 0
x-132 10 11 12 22 23 24 30 31 32 38 39 40 0
129 130 131 132 0
x-133 1 4 5 8 10 11 12 13 14 16 0
x-134 1 4 17 20 22 23 24 25 26 28 0
x-135 5 8 17 20 30 31 32 33 34 36 0
x-136 10 11 12 22 23 24 30 31 32 38 39 0
133 134 135 136 0
x-137 1 4 5 8 9 10 11 13 16 0
x-138 1 4 17 20 21 22 23 25 28 0
x-139 5 8 17 20 29 30 31 33 36 0
x-140 9 10 11 21 22 23 29 30 31 38 39 40 0
137 138 139 140 0
x-141 1 4 5 8 9 10 11 13 15 16 0
x-142 1 4 17 20 21 22 23 25 27 28 0
x-143 5 8 17 20 29 30 31 33 35 36 0
x-144 9 10 11 21 22 23 29 30 31 38 39 0
141 142 143 144 0
x-145 1 4 5 8 9 10 11 14 15 0
x-146 1 4 17 20 21 22 23 26 27 0
x-147 5 8 17 20 29 30 31 34 35 0
x-148 9 10 11 21 22 23 29 30 31 37 38 40 0
145 146 147 148 0
x-149 1 4 5 8 9 10 11 14 15 16 0
x-150 1 4 17 20 21 22 23 26 27 28 0
x-151 5 8 17 20 29 30 31 34 35 36 0
x-152 9 10 11 21 22 23 29 30 31 37 38 39 0
149 150 151 152 0
x-153 1 4 5 8 9 10 11 13 14 15 0
x-154 1 4 17 20 21 22 23 25 26 27 0
x-155 5 8 17 20 29 30 31 33 34 35 0
x-156 9 10 11 21 22 23 29 30 31 37 40 0
153 154 155 156 0
x-157 1 4 5 8 9 10 11 13 14 16 0
x-158 1 4 17 20 21 22 23 25 26 28 0
x-159 5 8 17 20 29 30 31 33 34 36 0
x-160 9 10 11 21 22 23 29 30 31 37 39 40 0
157 158 159 160 0
x-161 1 4 5 8 9 10 12 13 16 0
x-162 1 4 17 20 21 22 24 25 28 0
x-163 5 8 17 20 29 30 32 33 36 0
x-164 9 10 12 21 22 24 29 30 32 37 38 40 0
161 162 163 164 0
x-165 1 4 5 8 9 10 12 13 15 16 0
x-166 1 4 17 20 21 22 24 25 27 28 0
x-167 5 8 17 20 29 30 32 33 35 36 0
x-168 9 10 12 21 22 24 29 30 32 37 38 39 0
165 166 167 168 0
x-169 1 4 5 8 9 10 12 14 15 0
x-170 1 4 17 20 21 22 24 26 27 0
x-171 5 8 17 20 29 30 32 34 35 0
x-172 9 10 12 21 22 24 29 30 32 38 39 40 0
169 170 171 172 0
x-173 1 4 5 8 9 10 12 14 15 16 0
x-174 1 4 17 20 21 22 24 26 27 28 0
x-175 5 8 17 20 29 30 32 34 35 36 0
x-176 9 10 12 21 22 24 29 30 32 38 39 0
173 174 175 176 0
x-177 1 4 5 8 9 10 12 13 14 15 0
x-178 1 4 17 20 21 22 24 25 26 27 0
x-179 5 8 17 20 29 30 32 33 34 35 0
x-180 9 10 12 21 22 24 29 30 32 37 39 40 0
177 178 179 180 0
x-181 1 4 5 8 9 10 12 13 14 16 0
x-182 1 4 17 20 21 22 24 25 26 28 0
x-183 5 8 17 20 29 30 32 33 34 36 0
x-184 9 10 12 21 22 24 29 30 32 37 40 0
181 182 183 184 0
x-185 1 4 5 7 8 9 12 13 16 0
x-186 1 4 17 19 20 21 24 25 28 0
x-187 5 7 8 17 19 20 29 31 32 33 35 36 0
x-188 9 12 21 24 29 31 32 37 40 0
185 186 187 188 0
x-189 1 4 5 7 8 9 12 13 15 16 0
x-190 1 4 17 19 20 21 24 25 27 28 0
x-191 5 7 8 17 19 20 29 31 32 33 36 0
x-192 9 12 21 24 29 31 32 37 39 40 0
189 190 191 192 0
x-193 1 4 5 7 8 9 12 14 15 0
x-194 1 4 17 19 20 21 24 26 27 0
x-195 5 7 8 17 19 20 29 31 32 33 34 35 0
x-196 9 12 21 24 29 31 32 38 39 0
193 194 195 196 0
x-197 1 4 5 7 8 9 12 14 15 16 0
x-198 1 4 17 19 20 21 24 26 27 28 0
x-199 5 7 8 17 19 20 29 31 32 33 34 36 0
x-200 9 12 21 24 29 31 32 38 39 40 0
197 198 199 200 0
x-201 1 4 5 7 8 9 12 13 14 15 0
x-202 1 4 17 19 20 21 24 25 26 27 0
x-203 5 7 8 17 19 20 29 31 32 34 35 0
x-204 9 12 21 24 29 31 32 37 38 39 0
201 202 203 204 0
x-205 1 4 5 7 8 9 12 13 14 16 0
x-206 1 4 17 19 20 21 24 25 26 28 0
x-207 5 7 8 17 19 20 29 31 32 34 35 36 0
x-208 9 12 21 24 29 31 32 37 38 40 0
205 206 207 208 0
x-209 1 4 5 7 8 9 11 12 13 16 0
x-210 1 4 17 19 20 21 23 24 25 28 0
x-211 5 7 8 17 19 20 29 32 33 35 36 0
x-212 9 11 12 21 23 24 29 32 37 39 40 0
209 210 211 212 0
x-213 1 4 5 7 8 9 11 12 13 15 16 0
x-214 1 4 17 19 20 21 23 24 25 27 28 0
x-215 5 7 8 17 19 20 29 32 33 36 0
x-216 9 11 12 21 23 24 29 32 37 40 0
213 214 215 216 0
x-217 1 4 5 7 8 9 11 12 14 15 0
x-218 1 4 17 19 20 21 23 24 26 27 0
x-219 5 7 8 17 19 20 29 32 33 34 35 0
x-220 9 11 12 21 23 24 29 32 37 38 39 0
217 218 219 220 0
x-221 1 4 5 7 8 9 11 12 14 15 16 0
x-222 1 4 17 19 20 21 23 24 26 27 28 0
x-223 5 7 8 17 19 20 29 32 33 34 36 0
x-224 9 11 12 21 23 24 29 32 37 38 40 0
221 222 223 224 0
x-225 1 4 5 7 8 9 11 12 13 14 15 0
x-226 1 4 17 19 20 21 23 24 25 26 27 0
x-227 5 7 8 17 19 20 29 32 34 35 0
x-228 9 11 12 21 23 24 29 32 38 39 0
225 226 227 228 0
x-229 1 4 5 7 8 9 11 12 13 14 16 0
x-230 1 4 17 19 20 21 23 24 25 26 28 0
x-231 5 7 8 17 19 20 29 32 34 35 36 0
x-232 9 11 12 21 23 24 29 32 38 39 40 0
229 230 231 232 0
x-233 1 4 5 7 8 10 11 13 16 0
x-234 1 4 17 19 20 22 23 25 28 0
x-235 5 7 8 17 19 20 29 30 31 33 35 36 0
x-236 10 11 22 23 29 30 31 38 39 0
233 234 235 236 0
x-237 1 4 5 7 8 10 11 13 15 16 0
x-238 1 4 17 19 20 22 23 25 27 28 0
x-239 5 7 8 17 19 20 29 30 31 33 36 0
x-240 10 11 22 23 29 30 31 38 39 40 0
237 238 239 240 0
x-241 1 4 5 7 8 10 11 14 15 0
x-242 1 4 17 19 20 22 23 26 27 0
x-243 5 7 8 17 19 20 29 30 31 33 34 35 0
x-244 10 11 22 23 29 30 31 37 40 0
241 242 243 244 0
x-245 1 4 5 7 8 10 11 14 15 16 0
x-246 1 4 17 19 20 22 23 26 27 28 0
x-247 5 7 8 17 19 20 29 30 31 33 34 36 0
x-248 10 11 22 23 29 30 31 37 39 40 0
245 246 247 248 0
x-249 1 4 5 7 8 10 11 13 14 15 0
x-250 1 4 17 19 20 22 23 25 26 27 0
x-251 5 7 8 17 19 20 29 30 31 34 35 0
x-252 10 11 22 23 29 30 31 37 38 40 0
249 250 251 252 0
x-253 1 4 5 7 8 10 11 13 14 16 0
x-254 1 4 17 19 20 22 23 25 26 28 0
x-255 5 7 8 17 19 20 29 30 31 34 35 36 0
x-256 10 11 22 23 29 30 31 37 38 39 0
253 254 255 256 0
x-257 1 4 5 7 8 10 11 12 13 16 0
x-258 1 4 17 19 20 22 23 24 25 28 0
x-259 5 7 8 17 19 20 29 30 32 33 35 36 0
x-260 10 11 12 22 23 24 29 30 32 37 38 39 0
257 258 259 260 0
x-261 1 4 5 7 8 10 11 12 13 15 16 0
x-262 1 4 17 19 20 22 23 24 25 27 28 0
x-263 5 7 8 17 19 20 29 30 32 33 36 0
x-264 10 11 12 22 23 24 29 30 32 37 38 40 0
261 262 263 264 0
x-265 1 4 5 7 8 10 11 12 14 15 0
x-266 1 4 17 19 20 22 23 24 26 27 0
x-267 5 7 8 17 19 20 29 30 32 33 34 35 0
x-268 10 11 12 22 23 24 29 30 32 37 39 40 0
265 266 267 268 0
x-269 1 4 5 7 8 10 11 12 14 15 16 0
x-270 1 4 17 19 20 22 23 24 26 27 28 0
x-271 5 7 8 17 19 20 29 30 32 33 34 36 0
x-272 10 11 12 22 23 24 29 30 32 37 40 0
269 270 271 272 0
x-273 1 4 5 7 8 10 11 12 13 14 15 0
x-274 1 4 17 19 20 22 23 24 25 26 27 0
x-275 5 7 8 17 19 20 29 30 32 34 35 0
x-276 10 11 12 22 23 24 29 30 32 38 39 40 0
273 274 275 276 0
x-277 1 4 5 7 8 10 11 12 13 14 16 0
x-278 1 4 17 19 20 22 23 24 25 26 28 0
x-279 5 7 8 17 19 20 29 30 32 34 35 36 0
x-280 10 11 12 22 23 24 29 30 32 38 39 0
277 278 279 280 0
x-281 1 4 5 7 8 9 10 11 13 16 0
x-282 1 4 17 19 20 21 22 23 25 28 0
x-283 5 7 8 17 19 20 30 31 33 35 36 0
x-284 9 10 11 21 22 23 30 31 38 39 40 0
281 282 283 284 0
x-285 1 4 5 7 8 9 10 11 13 15 16 0
x-286 1 4 17 19 20 21 22 23 25 27 28 0
x-287 5 7 8 17 19 20 30 31 33 36 0
x-288 9 10 11 21 22 23 30 31 38 39 0
285 286 287 288 0
x-289 1 4 5 7 8 9 10 11 14 15 0
x-290 1 4 17 19 20 21 22 23 26 27 0
x-291 5 7 8 17 19 20 30 31 33 34 35 0
x-292 9 10 11 21 22 23 30 31 37 38 40 0
289 290 291 292 0
x-293 1 4 5 7 8 9 10 11 14 15 16 0
x-294 1 4 17 19 20 21 22 23 26 27 28 0
x-295 5 7 8 17 19 20 30 31 33 34 36 0
x-296 9 10 11 21 22 23 30 31 37 38 39 0
293 294 295 296 0
x-297 1 4 5 7 8 9 10 11 13 14 15 0
x-298 1 4 17 19 20 21 22 23 25 26 27 0
x-299 5 7 8 17 19 20 30 31 34 35 0
x-300 9 10 11 21 22 23 30 31 37 40 0
297 298 299 300 0
x-301 1 4 5 7 8 9 10 11 13 14 16 0
x-302 1 4 17 19 20 21 22 23 25 26 28 0
x-303 5 7 8 17 19 20 30 31 34 35 36 0
x-304 9 10 11 21 22 23 30 31 37 39 40 0
301 302 303 304 0
x-305 1 4 5 7 8 9 10 12 13 16 0
x-306 1 4 17 19 20 21 22 24 25 28 0
x-307 5 7 8 17 19 20 30 31 32 33 35 36 0
x-308 9 10 12 21 22 24 30 31 32 37 38 40 0
305 306 307 308 0
x-309 1 4 5 7 8 9 10 12 13 15 16 0
x-310 1 4 17 19 20 21 22 24 25 27 28 0
x-311 5 7 8 17 19 20 30 31 32 33 36 0
x-312 9 10 12 21 22 24 30 31 32 37 38 39 0
309 310 311 312 0
x-313 1 4 5 7 8 9 10 12 14 15 0
x-314 1 4 17 19 20 21 22 24 26 27 0
x-315 5 7 8 17 19 20 30 31 32 33 34 35 0
x-316 9 10 12 21 22 24 30 31 32 38 39 40 0
313 314 315 316 0
x-317 1 4 5 7 8 9 10 12 14 15 16 0
x-318 1 4 17 19 20 21 22 24 26 27 28 0
x-319 5 7 8 17 19 20 30 31 32 33 34 36 0
x-320 9 10 12 21 22 24 30 31 32 38 39 0
317 318 319 320 0
x-321 1 4 5 7 8 9 10 12 13 14 15 0
x-322 1 4 17 19 20 21 22 24 25 26 27 0
x-323 5 7 8 17 19 20 30 31 32 34 35 0
x-324 9 10 12 21 22 24 30 31 32 37 39 40 0
321 322 323 324 0
x-325 1 4 5 7 8 9 10 12 13 14 16 0
x-326 1 4 17 19 20 21 22 24 25 26 28 0
x-327 5 7 8 17 19 20 30 31 32 34 35 36 0
x-328 9 10 12 21 22 24 30 31 32 37 40 0
325 326 327 328 0
x-329 1 4 6 7 9 12 13 16 0
x-330 1 4 18 19 21 24 25 28 0
x-331 6 7 18 19 30 31 34 35 0
x-332 9 12 21 24 30 31 37 40 0
329 330 331 332 0
x-333 1 4 6 7 9 12 13 15 16 0
x-334 1 4 18 19 21 24 25 27 28 0
x-335 6 7 18 19 30 31 34 35 36 0
x-336 9 12 21 24 30 31 37 39 40 0
333 334 335 336 0
x-337 1 4 6 7 9 12 14 15 0
x-338 1 4 18 19 21 24 26 27 0
x-339 6 7 18 19 30 31 33 36 0
x-340 9 12 21 24 30 31 38 39 0
337 338 339 340 0
x-341 1 4 6 7 9 12 14 15 16 0
x-342 1 4 18 19 21 24 26 27 28 0
x-343 6 7 18 19 30 31 33 35 36 0
x-344 9 12 21 24 30 31 38 39 40 0
341 342 343 344 0
x-345 1 4 6 7 9 12 13 14 15 0
x-346 1 4 18 19 21 24 25 26 27 0
x-347 6 7 18 19 30 31 33 34 36 0
x-348 9 12 21 24 30 31 37 38 39 0
345 346 347 348 0
x-349 1 4 6 7 9 12 13 14 16 0
x-350 1 4 18 19 21 24 25 26 28 0
x-351 6 7 18 19 30 31 33 34 35 0
x-352 9 12 21 24 30 31 37 38 40 0
349 350 351 352 0
x-353 1 4 6 7 9 11 12 13 16 0
x-354 1 4 18 19 21 23 24 25 28 0
x-355 6 7 18 19 30 31 32 34 35 0
x-356 9 11 12 21 23 24 30 31 32 37 39 40 0
353 354 355 356 0
x-357 1 4 6 7 9 11 12 13 15 16 0
x-358 1 4 18 19 21 23 24 25 27 28 0
x-359 6 7 18 19 30 31 32 34 35 36 0
x-360 9 11 12 21 23 24 30 31 32 37 40 0
357 358 359 360 0
x-361 1 4 6 7 9 11 12 14 15 0
x-362 1 4 18 19 21 23 24 26 27 0
x-363 6 7 18 19 30 31 32 33 36 0
x-364 9 11 12 21 23 24 30 31 32 37 38 39 0
361 362 363 364 0
x-365 1 4 6 7 9 11 12 14 15 16 0
x-366 1 4 18 19 21 23 24 26 27 28 0
x-367 6 7 18 19 30 31 32 33 35 36 0
x-368 9 11 12 21 23 24 30 31 32 37 38 40 0
365 366 367 368 0
x-369 1 4 6 7 9 11 12 13 14 15 0
x-370 1 4 18 19 21 23 24 25 26 27 0
x-371 6 7 18 19 30 31 32 33 34 36 0
x-372 9 11 12 21 23 24 30 31 32 38 39 0
369 370 371 372 0
x-373 1 4 6 7 9 11 12 13 14 16 0
x-374 1 4 18 19 21 23 24 25 26 28 0
x-375 6 7 18 19 30 31 32 33 34 35 0
x-376 9 11 12 21 23 24 30 31 32 38 39 40 0
373 374 375 376 0
x-377 1 4 6 7 10 11 13 16 0
x-378 1 4 18 19 22 23 25 28 0
x-379 6 7 18 19 29 32 34 35 0
x-380 10 11 22 23 29 32 38 39 0
377 378 379 380 0
x-381 1 4 6 7 10 11 13 15 16 0
x-382 1 4 18 19 22 23 25 27 28 0
x-383 6 7 18 19 29 32 34 35 36 0
x-384 10 11 22 23 29 32 38 39 40 0
381 382 383 384 0
x-385 1 4 6 7 10 11 14 15 0
x-386 1 4 18 19 22 23 26 27 0
x-387 6 7 18 19 29 32 33 36 0
x-388 10 11 22 23 29 32 37 40 0
385 386 387 388 0
x-389 1 4 6 7 10 11 14 15 16 0
x-390 1 4 18 19 22 23 26 27 28 0
x-391 6 7 18 19 29 32 33 35 36 0
x-392 10 11 22 23 29 32 37 39 40 0
389 390 391 392 0
x-393 1 4 6 7 10 11 13 14 15 0
x-394 1 4 18 19 22 23 25 26 27 0
x-395 6 7 18 19 29 32 33 34 36 0
x-396 10 11 22 23 29 32 37 38 40 0
393 394 395 396 0
x-397 1 4 6 7 10 11 13 14 16 0
x-398 1 4 18 19 22 23 25 26 28 0
x-399 6 7 18 19 29 32 33 34 35 0
x-400 10 11 22 23 29 32 37 38 39 0
397 398 399 400 0
x-401 1 4 6 7 10 11 12 13 16 0
x-402 1 4 18 19 22 23 24 25 28 0
x-403 6 7 18 19 29 31 32 34 35 0
x-404 10 11 12 22 23 24 29 31 32 37 38 39 0
401 402 403 404 0
x-405 1 4 6 7 10 11 12 13 15 16 0
x-406 1 4 18 19 22 23 24 25 27 28 0
x-407 6 7 18 19 29 31 32 34 35 36 0
x-408 10 11 12 22 23 24 29 31 32 37 38 40 0
405 406 407 408 0
x-409 1 4 6 7 10 11 12 14 15 0
x-410 1 4 18 19 22 23 24 26 27 0
x-411 6 7 18 19 29 31 32 33 36 0
x-412 10 11 12 22 23 24 29 31 32 37 39 40 0
409 410 411 412 0
x-413 1 4 6 7 10 11 12 14 15 16 0
x-414 1 4 18 19 22 23 24 26 27 28 0
x-415 6 7 18 19 29 31 32 33 35 36 0
x-416 10 11 12 22 23 24 29 31 32 37 40 0
413 414 415 416 0
x-417 1 4 6 7 10 11 12 13 14 15 0
x-418 1 4 18 19 22 23 24 25 26 27 0
x-419 6 7 18 19 29 31 32 33 34 36 0
x-420 10 11 12 22 23 24 29 31 32 38 39 40 0
417 418 419 420 0
x-421 1 4 6 7 10 11 12 13 14 16 0
x-422 1 4 18 19 22 23 24 25 26 28 0
x-423 6 7 18 19 29 31 32 33 34 35 0
x-424 10 11 12 22 23 24 29 31 32 38 39 0
421 422 423 424 0
x-425 1 4 6 7 9 10 11 13 16 0
x-426 1 4 18 19 21 22 23 25 28 0
x-427 6 7 18 19 29 30 32 34 35 0
x-428 9 10 11 21 22 23 29 30 32 38 39 40 0
425 426 427 428 0
x-429 1 4 6 7 9 10 11 13 15 16 0
x-430 1 4 18 19 21 22 23 25 27 28 0
x-431 6 7 18 19 29 30 32 34 35 36 0
x-432 9 10 11 21 22 23 29 30 32 38 39 0
429 430 431 432 0
x-433 1 4 6 7 9 10 11 14 15 0
x-434 1 4 18 19 21 22 23 26 27 0
x-435 6 7 18 19 29 30 32 33 36 0
x-436 9 10 11 21 22 23 29 30 32 37 38 40 0
433 434 435 436 0
x-437 1 4 6 7 9 10 11 14 15 16 0
x-438 1 4 18 19 21 22 23 26 27 28 0
x-439 6 7 18 19 29 30 32 33 35 36 0
x-440 9 10 11 21 22 23 29 30 32 37 38 39 0
437 438 439 440 0
x-441 1 4 6 7 9 10 11 13 14 15 0
x-442 1 4 18 19 21 22 23 25 26 27 0
x-443 6 7 18 19 29 30 32 33 34 36 0
x-444 9 10 11 21 22 23 29 30 32 37 40 0
441 442 443 444 0
x-445 1 4 6 7 9 10 11 13 14 16 0
x-446 1 4 18 19 21 22 23 25 26 28 0
x-447 6 7 18 19 29 30 32 33 34 35 0
x-448 9 10 11 21 22 23 29 30 32 37 39 40 0
445 446 447 448 0
x-449 1 4 6 7 9 10 12 13 16 0
x-450 1 4 18 19 21 22 24 25 28 0
x-451 6 7 18 19 29 30 31 34 35 0
x-452 9 10 12 21 22 24 29 30 31 37 38 40 0
449 450 451 452 0
x-453 1 4 6 7 9 10 12 13 15 16 0
x-454 1 4 18 19 21 22 24 25 27 28 0
x-455 6 7 18 19 29 30 31 34 35 36 0
x-456 9 10 12 21 22 24 29 30 31 37 38 39 0
453 454 455 456 0
x-457 1 4 6 7 9 10 12 14 15 0
x-458 1 4 18 19 21 22 24 26 27 0
x-459 6 7 18 19 29 30 31 33 36 0
x-460 9 10 12 21 22 24 29 30 31 38 39 40 0
457 458 459 460 0
x-461 1 4 6 7 9 10 12 14 15 16 0
x-462 1 4 18 19 21 22 24 26 27 28 0
x-463 6 7 18 19 29 30 31 33 35 36 0
x-464 9 10 12 21 22 24 29 30 31 38 39 0
461 462 463 464 0
x-465 1 4 6 7 9 10 12 13 14 15 0
x-466 1 4 18 19 21 22 24 25 26 27 0
x-467 6 7 18 19 29 30 31 33 34 36 0
x-468 9 10 12 21 22 24 29 30 31 37 39 40 0
465 466 467 468 0
x-469 1 4 6 7 9 10 12 13 14 16 0
x-470 1 4 18 19 21 22 24 25 26 28 0
x-471 6 7 18 19 29 30 31 33 34 35 0
x-472 9 10 12 21 22 24 29 30 31 37 40 0
469 470 471 472 0
x-473 1 4 6 7 8 9 12 13 16 0
x-474 1 4 18 19 20 21 24 25 28 0
x-475 6 7 8 18 19 20 29 30 31 33 34 35 0
x-476 9 12 21 24 29 30 31 37 40 0
473 474 475 476 0
x-477 1 4 6 7 8 9 12 13 15 16 0
x-478 1 4 18 19 20 21 24 25 27 28 0
x-479 6 7 8 18 19 20 29 30 31 33 34 36 0
x-480 9 12 21 24 29 30 31 37 39 40 0
477 478 479 480 0
x-481 1 4 6 7 8 9 12 14 15 0
x-482 1 4 18 19 20 21 24 26 27 0
x-483 6 7 8 18 19 20 29 30 31 33 35 36 0
x-484 9 12 21 24 29 30 31 38 39 0
481 482 483 484 0
x-485 1 4 6 7 8 9 12 14 15 16 0
x-486 1 4 18 19 20 21 24 26 27 28 0
x-487 6 7 8 18 19 20 29 30 31 33 36 0
x-488 9 12 21 24 29 30 31 38 39 40 0
485 486 487 488 0
x-489 1 4 6 7 8 9 12 13 14 15 0
x-490 1 4 18 19 20 21 24 25 26 27 0
x-491 6 7 8 18 19 20 29 30 31 34 35 36 0
x-492 9 12 21 24 29 30 31 37 38 39 0
489 490 491 492 0
x-493 1 4 6 7 8 9 12 13 14 16 0
x-494 1 4 18 19 20 21 24 25 26 28 0
x-495 6 7 8 18 19 20 29 30 31 34 35 0
x-496 9 12 21 24 29 30 31 37 38 40 0
493 494 495 496 0
x-497 1 4 6 7 8 9 11 12 13 16 0
x-498 1 4 18 19 20 21 23 24 25 28 0
x-499 6 7 8 18 19 20 29 30 32 33 34 35 0
x-500 9 11 12 21 23 24 29 30 32 37 39 40 0
497 498 499 500 0
x-501 1 4 6 7 8 9 11 12 13 15 16 0
x-502 1 4 18 19 20 21 23 24 25 27 28 0
x-503 6 7 8 18 19 20 29 30 32 33 34 36 0
x-504 9 11 12 21 23 24 29 30 32 37 40 0
501 502 503 504 0
x-505 1 4 6 7 8 9 11 12 14 15 0
x-506 1 4 18 19 20 21 23 24 26 27 0
x-507 6 7 8 18 19 20 29 30 32 33 35 36 0
x-508 9 11 12 21 23 24 29 30 32 37 38 39 0
505 506 507 508 0
x-509 1 4 6 7 8 9 11 12 14 15 16 0
x-510 1 4 18 19 20 21 23 24 26 27 28 0
x-511 6 7 8 18 19 20 29 30 32 33 36 0
x-512 9 11 12 21 23 24 29 30 32 37 38 40 0
509 510 511 512 0
x-513 1 4 6 7 8 9 11 12 13 14 15 0
x-514 1 4 18 19 20 21 23 24 25 26 27 0
x-515 6 7 8 18 19 20 29 30 32 34 35 36 0
x-516 9 11 12 21 23 24 29 30 32 38 39 0
513 514 515 516 0
x-517 1 4 6 7 8 9 11 12 13 14 16 0
x-518 1 4 18 19 20 21 23 24 25 26 28 0
x-519 6 7 8 18 19 20 29 30 32 34 35 0
x-520 9 11 12 21 23 24 29 30 32 38 39 40 0
517 518 519 520 0
x-521 1 4 6 7 8 10 11 13 16 0
x-522 1 4 18 19 20 22 23 25 28 0
x-523 6 7 8 18 19 20 29 31 32 33 34 35 0
x-524 10 11 22 23 29 31 32 38 39 0
521 522 523 524 0
x-525 1 4 6 7 8 10 11 13 15 16 0
x-526 1 4 18 19 20 22 23 25 27 28 0
x-527 6 7 8 18 19 20 29 31 32 33 34 36 0
x-528 10 11 22 23 29 31 32 38 39 40 0
525 526 527 528 0
x-529 1 4 6 7 8 10 11 14 15 0
x-530 1 4 18 19 20 22 23 26 27 0
x-531 6 7 8 18 19 20 29 31 32 33 35 36 0
x-532 10 11 22 23 29 31 32 37 40 0
529 530 531 532 0
x-533 1 4 6 7 8 10 11 14 15 16 0
x-534 1 4 18 19 20 22 23 26 27 28 0
x-535 6 7 8 18 19 20 29 31 32 33 36 0
x-536 10 11 22 23 29 31 32 37 39 40 0
533 534 535 536 0
x-537 1 4 6 7 8 10 11 13 14 15 0
x-538 1 4 18 19 20 22 23 25 26 27 0
x-539 6 7 8 18 19 20 29 31 32 34 35 36 0
x-540 10 11 22 23 29 31 32 37 38 40 0
537 538 539 540 0
x-541 1 4 6 7 8 10 11 13 14 16 0
x-542 1 4 18 19 20 22 23 25 26 28 0
x-543 6 7 8 18 19 20 29 31 32 34 35 0
x-544 10 11 22 23 29 31 32 37 38 39 0
541 542 543 544 0
x-545 1 4 6 7 8 10 11 12 13 16 0
x-546 1 4 18 19 20 22 23 24 25 28 0
x-547 6 7 8 18 19 20 29 32 33 34 35 0
x-548 10 11 12 22 23 24 29 32 37 38 39 0
545 546 547 548 0
x-549 1 4 6 7 8 10 11 12 13 15 16 0
x-550 1 4 18 19 20 22 23 24 25 27 28 0
x-551 6 7 8 18 19 20 29 32 33 34 36 0
x-552 10 11 12 22 23 24 29 32 37 38 40 0
549 550 551 552 0
x-553 1 4 6 7 8 10 11 12 14 15 0
x-554 1 4 18 19 20 22 23 24 26 27 0
x-555 6 7 8 18 19 20 29 32 33 35 36 0
x-556 10 11 12 22 23 24 29 32 37 39 40 0
553 554 555 556 0
x-557 1 4 6 7 8 10 11 12 14 15 16 0
x-558 1 4 18 19 20 22 23 24 26 27 28 0
x-559 6 7 8 18 19 20 29 32 33 36 0
x-560 10 11 12 22 23 24 29 32 37 40 0
557 558 559 560 0
x-561 1 4 6 7 8 10 11 12 13 14 15 0
x-562 1 4 18 19 20 22 23 24 25 26 27 0
x-563 6 7 8 18 19 20 29 32 34 35 36 0
x-564 10 11 12 22 23 24 29 32 38 39 40 0
561 562 563 564 0
x-565 1 4 6 7 8 10 11 12 13 14 16 0
x-566 1 4 18 19 20 22 23 24 25 26 28 0
x-567 6 7 8 18 19 20 29 32 34 35 0
x-568 10 11 12 22 23 24 29 32 38 39 0
565 566 567 568 0
x-569 1 4 6 7 8 9 10 11 13 16 0
x-570 1 4 18 19 20 21 22 23 25 28 0
x-571 6 7 8 18 19 20 30 31 32 33 34 35 0
x-572 9 10 11 21 22 23 30 31 32 38 39 40 0
569 570 571 572 0
x-573 1 4 6 7 8 9 10 11 13 15 16 0
x-574 1 4 18 19 20 21 22 23 25 27 28 0
x-575 6 7 8 18 19 20 30 31 32 33 34 36 0
x-576 9 10 11 21 22 23 30 31 32 38 39 0
573 574 575 576 0
x-577 1 4 6 7 8 9 10 11 14 15 0
x-578 1 4 18 19 20 21 22 23 26 27 0
x-579 6 7 8 18 19 20 30 31 32 33 35 36 0
x-580 9 10 11 21 22 23 30 31 32 37 38 40 0
577 578 579 580 0
x-581 1 4 6 7 8 9 10 11 14 15 16 0
x-582 1 4 18 19 20 21 22 23 26 27 28 0
x-583 6 7 8 18 19 20 30 31 32 33 36 0
x-584 9 10 11 21 22 23 30 31 32 37 38 39 0
581 582 583 584 0
x-585 1 4 6 7 8 9 10 11 13 14 15 0
x-586 1 4 18 19 20 21 22 23 25 26 27 0
x-587 6 7 8 18 19 20 30 31 32 34 35 36 0
x-588 9 10 11 21 22 23 30 31 32 37 40 0
585 586 587 588 0
x-589 1 4 6 7 8 9 10 11 13 14 16 0
x-590 1 4 18 19 20 21 22 23 25 26 28 0
x-591 6 7 8 18 19 20 30 31 32 34 35 0
x-592 9 10 11 21 22 23 30 31 32 37 39 40 0
589 590 591 592 0
x-593 1 4 6 7 8 9 10 12 13 16 0
x-594 1 4 18 19 20 21 22 24 25 28 0
x-595 6 7 8 18 19 20 30 31 33 34 35 0
x-596 9 10 12 21 22 24 30 31 37 38 40 0
593 594 595 596 0
x-597 1 4 6 7 8 9 10 12 13 15 16 0
x-598 1 4 18 19 20 21 22 24 25 27 28 0
x-599 6 7 8 18 19 20 30 31 33 34 36 0
x-600 9 10 12 21 22 24 30 31 37 38 39 0
597 598 599 600 0
x-601 1 4 6 7 8 9 10 12 14 15 0
x-602 1 4 18 19 20 21 22 24 26 27 0
x-603 6 7 8 18 19 20 30 31 33 35 36 0
x-604 9 10 12 21 22 24 30 31 38 39 40 0
601 602 603 604 0
x-605 1 4 6 7 8 9 10 12 14 15 16 0
x-606 1 4 18 19 20 21 22 24 26 27 28 0
x-607 6 7 8 18 19 20 30 31 33 36 0
x-608 9 10 12 21 22 24 30 31 38 39 0
605 606 607 608 0
x-609 1 4 6 7 8 9 10 12 13 14 15 0
x-610 1 4 18 19 20 21 22 24 25 26 27 0
x-611 6 7 8 18 19 20 30 31 34 35 36 0
x-612 9 10 12 21 22 24 30 31 37 39 40 0
609 610 611 612 0
x-613 1 4 6 7 8 9 10 12 13 14 16 0
x-614 1 4 18 19 20 21 22 24 25 26 28 0
x-615 6 7 8 18 19 20 30 31 34 35 0
x-616 9 10 12 21 22 24 30 31 37 40 0
613 614 615 616 0
x-617 1 4 5 6 7 9 12 13 16 0
x-618 1 4 17 18 19 21 24 25 28 0
x-619 5 6 7 17 18 19 30 31 32 34 35 36 0
x-620 9 12 21 24 30 31 32 37 40 0
617 618 619 620 0
x-621 1 4 5 6 7 9 12 13 15 16 0
x-622 1 4 17 18 19 21 24 25 27 28 0
x-623 5 6 7 17 18 19 30 31 32 34 35 0
x-624 9 12 21 24 30 31 32 37 39 40 0
621 622 623 624 0
x-625 1 4 5 6 7 9 12 14 15 0
x-626 1 4 17 18 19 21 24 26 27 0
x-627 5 6 7 17 18 19 30 31 32 33 34 36 0
x-628 9 12 21 24 30 31 32 38 39 0
625 626 627 628 0
x-629 1 4 5 6 7 9 12 14 15 16 0
x-630 1 4 17 18 19 21 24 26 27 28 0
x-631 5 6 7 17 18 19 30 31 32 33 34 35 0
x-632 9 12 21 24 30 31 32 38 39 40 0
629 630 631 632 0
x-633 1 4 5 6 7 9 12 13 14 15 0
x-634 1 4 17 18 19 21 24 25 26 27 0
x-635 5 6 7 17 18 19 30 31 32 33 36 0
x-636 9 12 21 24 30 31 32 37 38 39 0
633 634 635 636 0
x-637 1 4 5 6 7 9 12 13 14 16 0
x-638 1 4 17 18 19 21 24 25 26 28 0
x-639 5 6 7 17 18 19 30 31 32 33 35 36 0
x-640 9 12 21 24 30 31 32 37 38 40 0
637 638 639 640 0
x-641 1 4 5 6 7 9 11 12 13 16 0
x-642 1 4 17 18 19 21 23 24 25 28 0
x-643 5 6 7 17 18 19 30 31 34 35 36 0
x-644 9 11 12 21 23 24 30 31 37 39 40 0
641 642 643 644 0
x-645 1 4 5 6 7 9 11 12 13 15 16 0
x-646 1 4 17 18 19 21 23 24 25 27 28 0
x-647 5 6 7 17 18 19 30 31 34 35 0
x-648 9 11 12 21 23 24 30 31 37 40 0
645 646 647 648 0
x-649 1 4 5 6 7 9 11 12 14 15 0
x-650 1 4 17 18 19 21 23 24 26 27 0
x-651 5 6 7 17 18 19 30 31 33 34 36 0
x-652 9 11 12 21 23 24 30 31 37 38 39 0
649 650 651 652 0
x-653 1 4 5 6 7 9 11 12 14 15 16 0
x-654 1 4 17 18 19 21 23 24 26 27 28 0
x-655 5 6 7 17 18 19 30 31 33 34 35 0
x-656 9 11 12 21 23 24 30 31 37 38 40 0
653 654 655 656 0
x-657 1 4 5 6 7 9 11 12 13 14 15 0
x-658 1 4 17 18 19 21 23 24 25 26 27 0
x-659 5 6 7 17 18 19 30 31 33 36 0
x-660 9 11 12 21 23 24 30 31 38 39 0
657 658 659 660 0
x-661 1 4 5 6 7 9 11 12 13 14 16 0
x-662 1 4 17 18 19 21 23 24 25 26 28 0
x-663 5 6 7 17 18 19 30 31 33 35 36 0
x-664 9 11 12 21 23 24 30 31 38 39 40 0
661 662 663 664 0
x-665 1 4 5 6 7 10 11 13 16 0
x-666 1 4 17 18 19 22 23 25 28 0
x-667 5 6 7 17 18 19 29 30 32 34 35 36 0
x-668 10 11 22 23 29 30 32 38 39 0
665 666 667 668 0
x-669 1 4 5 6 7 10 11 13 15 16 0
x-670 1 4 17 18 19 22 23 25 27 28 0
x-671 5 6 7 17 18 19 29 30 32 34 35 0
x-672 10 11 22 23 29 30 32 38 39 40 0
669 670 671 672 0
x-673 1 4 5 6 7 10 11 14 15 0
x-674 1 4 17 18 19 22 23 26 27 0
x-675 5 6 7 17 18 19 29 30 32 33 34 36 0
x-676 10 11 22 23 29 30 32 37 40 0
673 674 675 676 0
x-677 1 4 5 6 7 10 11 14 15 16 0
x-678 1 4 17 18 19 22 23 26 27 28 0
x-679 5 6 7 17 18 19 29 30 32 33 34 35 0
x-680 10 11 22 23 29 30 32 37 39 40 0
677 678 679 680 0
x-681 1 4 5 6 7 10 11 13 14 15 0
x-682 1 4 17 18 19 22 23 25 26 27 0
x-683 5 6 7 17 18 19 29 30 32 33 36 0
x-684 10 11 22 23 29 30 32 37 38 40 0
681 682 683 684 0
x-685 1 4 5 6 7 10 11 13 14 16 0
x-686 1 4 17 18 19 22 23 25 26 28 0
x-687 5 6 7 17 18 19 29 30 32 33 35 36 0
x-688 10 11 22 23 29 30 32 37 38 39 0
685 686 687 688 0
x-689 1 4 5 6 7 10 11 12 13 16 0
x-690 1 4 17 18 19 22 23 24 25 28 0
x-691 5 6 7 17 18 19 29 30 31 34 35 36 0
x-692 10 11 12 22 23 24 29 30 31 37 38 39 0
689 690 691 692 0
x-693 1 4 5 6 7 10 11 12 13 15 16 0
x-694 1 4 17 18 19 22 23 24 25 27 28 0
x-695 5 6 7 17 18 19 29 30 31 34 35 0
x-696 10 11 12 22 23 24 29 30 31 37 38 40 0
693 694 695 696 0
x-697 1 4 5 6 7 10 11 12 14 15 0
x-698 1 4 17 18 19 22 23 24 26 27 0
x-699 5 6 7 17 18 19 29 30 31 33 34 36 0
x-700 10 11 12 22 23 24 29 30 31 37 39 40 0
697 698 699 700 0
x-701 1 4 5 6 7 10 11 12 14 15 16 0
x-702 1 4 17 18 19 22 23 24 26 27 28 0
x-703 5 6 7 17 18 19 29 30 31 33 34 35 0
x-704 10 11 12 22 23 24 29 30 31 37 40 0
701 702 703 704 0
x-705 1 4 5 6 7 10 11 12 13 14 15 0
x-706 1 4 17 18 19 22 23 24 25 26 27 0
x-707 5 6 7 17 18 19 29 30 31 33 36 0
x-708 10 11 12 22 23 24 29 30 31 38 39 40 0
705 706 707 708 0
x-709 1 4 5 6 7 10 11 12 13 14 16 0
x-710 1 4 17 18 19 22 23 24 25 26 28 0
x-711 5 6 7 17 18 19 29 30 31 33 35 36 0
x-712 10 11 12 22 23 24 29 30 31 38 39 0
709 710 711 712 0
x-713 1 4 5 6 7 9 10 11 13 16 0
x-714 1 4 17 18 19 21 22 23 25 28 0
x-715 5 6 7 17 18 19 29 32 34 35 36 0
x-716 9 10 11 21 22 23 29 32 38 39 40 0
713 714 715 716 0
x-717 1 4 5 6 7 9 10 11 13 15 16 0
x-718 1 4 17 18 19 21 22 23 25 27 28 0
x-719 5 6 7 17 18 19 29 32 34 35 0
x-720 9 10 11 21 22 23 29 32 38 39 0
717 718 719 720 0
x-721 1 4 5 6 7 9 10 11 14 15 0
x-722 1 4 17 18 19 21 22 23 26 27 0
x-723 5 6 7 17 18 19 29 32 33 34 36 0
x-724 9 10 11 21 22 23 29 32 37 38 40 0
721 722 723 724 0
x-725 1 4 5 6 7 9 10 11 14 15 16 0
x-726 1 4 17 18 19 21 22 23 26 27 28 0
x-727 5 6 7 17 18 19 29 32 33 34 35 0
x-728 9 10 11 21 22 23 29 32 37 38 39 0
725 726 727 728 0
x-729 1 4 5 6 7 9 10 11 13 14 15 0
x-730 1 4 17 18 19 21 22 23 25 26 27 0
x-731 5 6 7 17 18 19 29 32 33 36 0
x-732 9 10 11 21 22 23 29 32 37 40 0
729 730 731 732 0
x-733 1 4 5 6 7 9 10 11 13 14 16 0
x-734 1 4 17 18 19 21 22 23 25 26 28 0
x-735 5 6 7 17 18 19 29 32 33 35 36 0
x-736 9 10 11 21 22 23 29 32 37 39 40 0
733 734 735 736 0
x-737 1 4 5 6 7 9 10 12 13 16 0
x-738 1 4 17 18 19 21 22 24 25 28 0
x-739 5 6 7 17 18 19 29 31 32 34 35 36 0
x-740 9 10 12 21 22 24 29 31 32 37 38 40 0
737 738 739 740 0
x-741 1 4 5 6 7 9 10 12 13 15 16 0
x-742 1 4 17 18 19 21 22 24 25 27 28 0
x-743 5 6 7 17 18 19 29 31 32 34 35 0
x-744 9 10 12 21 22 24 29 31 32 37 38 39 0
741 742 743 744 0
x-745 1 4 5 6 7 9 10 12 14 15 0
x-746 1 4 17 18 19 21 22 24 26 27 0
x-747 5 6 7 17 18 19 29 31 32 33 34 36 0
x-748 9 10 12 21 22 24 29 31 32 38 39 40 0
745 746 747 748 0
x-749 1 4 5 6 7 9 10 12 14 15 16 0
x-750 1 4 17 18 19 21 22 24 26 27 28 0
x-751 5 6 7 17 18 19 29 31 32 33 34 35 0
x-752 9 10 12 21 22 24 29 31 32 38 39 0
749 750 751 752 0
x-753 1 4 5 6 7 9 10 12 13 14 15 0
x-754 1 4 17 18 19 21 22 24 25 26 27 0
x-755 5 6 7 17 18 19 29 31 32 33 36 0
x-756 9 10 12 21 22 24 29 31 32 37 39 40 0
753 754 755 756 0
x-757 1 4 5 6 7 9 10 12 13 14 16 0
x-758 1 4 17 18 19 21 22 24 25 26 28 0
x-759 5 6 7 17 18 19 29 31 32 33 35 36 0
x-760 9 10 12 21 22 24 29 31 32 37 40 0
757 758 759 760 0
x-761 1 4 5 6 8 9 12 13 16 0
x-762 1 4 17 18 20 21 24 25 28 0
x-763 5 6 8 17 18 20 29 30 32 33 34 36 0
x-764 9 12 21 24 29 30 32 37 40 0
761 762 763 764 0
x-765 1 4 5 6 8 9 12 13 15 16 0
x-766 1 4 17 18 20 21 24 25 27 28 0
x-767 5 6 8 17 18 20 29 30 32 33 34 35 0
x-768 9 12 21 24 29 30 32 37 39 40 0
765 766 767 768 0
x-769 1 4 5 6 8 9 12 14 15 0
x-770 1 4 17 18 20 21 24 26 27 0
x-771 5 6 8 17 18 20 29 30 32 34 35 36 0
x-772 9 12 21 24 29 30 32 38 39 0
769 770 771 772 0
x-773 1 4 5 6 8 9 12 14 15 16 0
x-774 1 4 17 18 20 21 24 26 27 28 0
x-775 5 6 8 17 18 20 29 30 32 34 35 0
x-776 9 12 21 24 29 30 32 38 39 40 0
773 774 775 776 0
x-777 1 4 5 6 8 9 12 13 14 15 0
x-778 1 4 17 18 20 21 24 25 26 27 0
x-779 5 6 8 17 18 20 29 30 32 33 35 36 0
x-780 9 12 21 24 29 30 32 37 38 39 0
777 778 779 780 0
x-781 1 4 5 6 8 9 12 13 14 16 0
x-782 1 4 17 18 20 21 24 25 26 28 0
x-783 5 6 8 17 18 20 29 30 32 33 36 0
x-784 9 12 21 24 29 30 32 37 38 40 0
781 782 783 784 0
x-785 1 4 5 6 8 9 11 12 13 16 0
x-786 1 4 17 18 20 21 23 24 25 28 0
x-787 5 6 8 17 18 20 29 30 31 33 34 36 0
x-788 9 11 12 21 23 24 29 30 31 37 39 40 0
785 786 787 788 0
x-789 1 4 5 6 8 9 11 12 13 15 16 0
x-790 1 4 17 18 20 21 23 24 25 27 28 0
x-791 5 6 8 17 18 20 29 30 31 33 34 35 0
x-792 9 11 12 21 23 24 29 30 31 37 40 0
789 790 791 792 0
x-793 1 4 5 6 8 9 11 12 14 15 0
x-794 1 4 17 18 20 21 23 24 26 27 0
x-795 5 6 8 17 18 20 29 30 31 34 35 36 0
x-796 9 11 12 21 23 24 29 30 31 37 38 39 0
793 794 795 796 0
x-797 1 4 5 6 8 9 11 12 14 15 16 0
x-798 1 4 17 18 20 21 23 24 26 27 28 0
x-799 5 6 8 17 18 20 29 30 31 34 35 0
x-800 9 11 12 21 23 24 29 30 31 37 38 40 0
797 798 799 800 0
x-801 1 4 5 6 8 9 11 12 13 14 15 0
x-802 1 4 17 18 20 21 23 24 25 26 27 0
x-803 5 6 8 17 18 20 29 30 31 33 35 36 0
x-804 9 11 12 21 23 24 29 30 31 38 39 0
801 802 803 804 0
x-805 1 4 5 6 8 9 11 12 13 14 16 0
x-806 1 4 17 18 20 21 23 24 25 26 28 0
x-807 5 6 8 17 18 20 29 30 31 33 36 0
x-808 9 11 12 21 23 24 29 30 31 38 39 40 0
805 806 807 808 0
x-809 1 4 5 6 8 10 11 13 16 0
x-810 1 4 17 18 20 22 23 25 28 0
x-811 5 6 8 17 18 20 30 31 32 33 34 36 0
x-812 10 11 22 23 30 31 32 38 39 0
809 810 811 812 0
x-813 1 4 5 6 8 10 11 13 15 16 0
x-814 1 4 17 18 20 22 23 25 27 28 0
x-815 5 6 8 17 18 20 30 31 32 33 34 35 0
x-816 10 11 22 23 30 31 32 38 39 40 0
813 814 815 816 0
x-817 1 4 5 6 8 10 11 14 15 0
x-818 1 4 17 18 20 22 23 26 27 0
x-819 5 6 8 17 18 20 30 31 32 34 35 36 0
x-820 10 11 22 23 30 31 32 37 40 0
817 818 819 820 0
x-821 1 4 5 6 8 10 11 14 15 16 0
x-822 1 4 17 18 20 22 23 26 27 28 0
x-823 5 6 8 17 18 20 30 31 32 34 35 0
x-824 10 11 22 23 30 31 32 37 39 40 0
821 822 823 824 0
x-825 1 4 5 6 8 10 11 13 14 15 0
x-826 1 4 17 18 20 22 23 25 26 27 0
x-827 5 6 8 17 18 20 30 31 32 33 35 36 0
x-828 10 11 22 23 30 31 32 37 38 40 0
825 826 827 828 0
x-829 1 4 5 6 8 10 11 13 14 16 0
x-830 1 4 17 18 20 22 23 25 26 28 0
x-831 5 6 8 17 18 20 30 31 32 33 36 0
x-832 10 11 22 23 30 31 32 37 38 39 0
829 830 831 832 0
x-833 1 4 5 6 8 10 11 12 13 16 0
x-834 1 4 17 18 20 22 23 24 25 28 0
x-835 5 6 8 17 18 20 30 31 33 34 36 0
x-836 10 11 12 22 23 24 30 31 37 38 39 0
833 834 835 836 0
x-837 1 4 5 6 8 10 11 12 13 15 16 0
x-838 1 4 17 18 20 22 23 24 25 27 28 0
x-839 5 6 8 17 18 20 30 31 33 34 35 0
x-840 10 11 12 22 23 24 30 31 37 38 40 0
837 838 839 840 0
x-841 1 4 5 6 8 10 11 12 14 15 0
x-842 1 4 17 18 20 22 23 24 26 27 0
x-843 5 6 8 17 18 20 30 31 34 35 36 0
x-844 10 11 12 22 23 24 30 31 37 39 40 0
841 842 843 844 0
x-845 1 4 5 6 8 10 11 12 14 15 16 0
x-846 1 4 17 18 20 22 23 24 26 27 28 0
x-847 5 6 8 17 18 20 30 31 34 35 0
x-848 10 11 12 22 23 24 30 31 37 40 0
845 846 847 848 0
x-849 1 4 5 6 8 10 11 12 13 14 15 0
x-850 1 4 17 18 20 22 23 24 25 26 27 0
x-851 5 6 8 17 18 20 30 31 33 35 36 0
x-852 10 11 12 22 23 24 30 31 38 39 40 0
849 850 851 852 0
x-853 1 4 5 6 8 10 11 12 13 14 16 0
x-854 1 4 17 18 20 22 23 24 25 26 28 0
x-855 5 6 8 17 18 20 30 31 33 36 0
x-856 10 11 12 22 23 24 30 31 38 39 0
853 854 855 856 0
x-857 1 4 5 6 8 9 10 11 13 16 0
x-858 1 4 17 18 20 21 22 23 25 28 0
x-859 5 6 8 17 18 20 29 31 32 33 34 36 0
x-860 9 10 11 21 22 23 29 31 32 38 39 40 0
857 858 859 860 0
x-861 1 4 5 6 8 9 10 11 13 15 16 0
x-862 1 4 17 18 20 21 22 23 25 27 28 0
x-863 5 6 8 17 18 20 29 31 32 33 34 35 0
x-864 9 10 11 21 22 23 29 31 32 38 39 0
861 862 863 864 0
x-865 1 4 5 6 8 9 10 11 14 15 0
x-866 1 4 17 18 20 21 22 23 26 27 0
x-867 5 6 8 17 18 20 29 31 32 34 35 36 0
x-868 9 10 11 21 22 23 29 31 32 37 38 40 0
865 866 867 868 0
x-869 1 4 5 6 8 9 10 11 14 15 16 0
x-870 1 4 17 18 20 21 22 23 26 27 28 0
x-871 5 6 8 17 18 20 29 31 32 34 35 0
x-872 9 10 11 21 22 23 29 31 32 37 38 39 0
869 870 871 872 0
x-873 1 4 5 6 8 9 10 11 13 14 15 0
x-874 1 4 17 18 20 21 22 23 25 26 27 0
x-875 5 6 8 17 18 20 29 31 32 33 35 36 0
x-876 9 10 11 21 22 23 29 31 32 37 40 0
873 874 875 876 0
x-877 1 4 5 6 8 9 10 11 13 14 16 0
x-878 1 4 17 18 20 21 22 23 25 26 28 0
x-879 5 6 8 17 18 20 29 31 32 33 36 0
x-880 9 10 11 21 22 23 29 31 32 37 39 40 0
877 878 879 880 0
x-881 1 4 5 6 8 9 10 12 13 16 0
x-882 1 4 17 18 20 21 22 24 25 28 0
x-883 5 6 8 17 18 20 29 32 33 34 36 0
x-884 9 10 12 21 22 24 29 32 37 38 40 0
881 882 883 884 0
x-885 1 4 5 6 8 9 10 12 13 15 16 0
x-886 1 4 17 18 20 21 22 24 25 27 28 0
x-887 5 6 8 17 18 20 29 32 33 34 35 0
x-888 9 10 12 21 22 24 29 32 37 38 39 0
885 886 887 888 0
x-889 1 4 5 6 8 9 10 12 14 15 0
x-890 1 4 17 18 20 21 22 24 26 27 0
x-891 5 6 8 17 18 20 29 32 34 35 36 0
x-892 9 10 12 21 22 24 29 32 38 39 40 0
889 890 891 892 0
x-893 1 4 5 6 8 9 10 12 14 15 16 0
x-894 1 4 17 18 20 21 22 24 26 27 28 0
x-895 5 6 8 17 18 20 29 32 34 35 0
x-896 9 10 12 21 22 24 29 32 38 39 0
893 894 895 896 0
x-897 1 4 5 6 8 9 10 12 13 14 15 0
x-898 1 4 17 18 20 21 22 24 25 26 27 0
x-899 5 6 8 17 18 20 29 32 33 35 36 0
x-900 9 10 12 21 22 24 29 32 37 39 40 0
897 898 899 900 0
x-901 1 4 5 6 8 9 10 12 13 14 16 0
x-902 1 4 17 18 20 21 22 24 25 26 28 0
x-903 5 6 8 17 18 20 29 32 33 36 0
x-904 9 10 12 21 22 24 29 32 37 40 0
901 902 903 904 0
x-905 1 3 4 5 8 9 12 13 16 0
x-906 1 3 4 17 19 20 21 23 24 25 27 28 0
x-907 5 8 17 19 20 29 32 33 36 0
x-908 9 12 21 23 24 29 32 37 40 0
905 906 907 908 0
x-909 1 3 4 5 8 9 12 13 15 16 0
x-910 1 3 4 17 19 20 21 23 24 25 28 0
x-911 5 8 17 19 20 29 32 33 35 36 0
x-912 9 12 21 23 24 29 32 37 39 40 0
909 910 911 912 0
x-913 1 3 4 5 8 9 12 14 15 0
x-914 1 3 4 17 19 20 21 23 24 25 26 27 0
x-915 5 8 17 19 20 29 32 34 35 0
x-916 9 12 21 23 24 29 32 38 39 0
913 914 915 916 0
x-917 1 3 4 5 8 9 12 14 15 16 0
x-918 1 3 4 17 19 20 21 23 24 25 26 28 0
x-919 5 8 17 19 20 29 32 34 35 36 0
x-920 9 12 21 23 24 29 32 38 39 40 0
917 918 919 920 0
x-921 1 3 4 5 8 9 12 13 14 15 0
x-922 1 3 4 17 19 20 21 23 24 26 27 0
x-923 5 8 17 19 20 29 32 33 34 35 0
x-924 9 12 21 23 24 29 32 37 38 39 0
921 922 923 924 0
x-925 1 3 4 5 8 9 12 13 14 16 0
x-926 1 3 4 17 19 20 21 23 24 26 27 28 0
x-927 5 8 17 19 20 29 32 33 34 36 0
x-928 9 12 21 23 24 29 32 37 38 40 0
925 926 927 928 0
x-929 1 3 4 5 8 9 11 12 13 16 0
x-930 1 3 4 17 19 20 21 24 25 27 28 0
x-931 5 8 17 19 20 29 31 32 33 36 0
x-932 9 11 12 21 24 29 31 32 37 39 40 0
929 930 931 932 0
x-933 1 3 4 5 8 9 11 12 13 15 16 0
x-934 1 3 4 17 19 20 21 24 25 28 0
x-935 5 8 17 19 20 29 31 32 33 35 36 0
x-936 9 11 12 21 24 29 31 32 37 40 0
933 934 935 936 0
x-937 1 3 4 5 8 9 11 12 14 15 0
x-938 1 3 4 17 19 20 21 24 25 26 27 0
x-939 5 8 17 19 20 29 31 32 34 35 0
x-940 9 11 12 21 24 29 31 32 37 38 39 0
937 938 939 940 0
x-941 1 3 4 5 8 9 11 12 14 15 16 0
x-942 1 3 4 17 19 20 21 24 25 26 28 0
x-943 5 8 17 19 20 29 31 32 34 35 36 0
x-944 9 11 12 21 24 29 31 32 37 38 40 0
941 942 943 944 0
x-945 1 3 4 5 8 9 11 12 13 14 15 0
x-946 1 3 4 17 19 20 21 24 26 27 0
x-947 5 8 17 19 20 29 31 32 33 34 35 0
x-948 9 11 12 21 24 29 31 32 38 39 0
945 946 947 948 0
x-949 1 3 4 5 8 9 11 12 13 14 16 0
x-950 1 3 4 17 19 20 21 24 26 27 28 0
x-951 5 8 17 19 20 29 31 32 33 34 36 0
x-952 9 11 12 21 24 29 31 32 38 39 40 0
949 950 951 952 0
x-953 1 3 4 5 8 10 11 13 16 0
x-954 1 3 4 17 19 20 21 22 23 25 27 28 0
x-955 5 8 17 19 20 30 31 33 36 0
x-956 10 11 21 22 23 30 31 38 39 0
953 954 955 956 0
x-957 1 3 4 5 8 10 11 13 15 16 0
x-958 1 3 4 17 19 20 21 22 23 25 28 0
x-959 5 8 17 19 20 30 31 33 35 36 0
x-960 10 11 21 22 23 30 31 38 39 40 0
957 958 959 960 0
x-961 1 3 4 5 8 10 11 14 15 0
x-962 1 3 4 17 19 20 21 22 23 25 26 27 0
x-963 5 8 17 19 20 30 31 34 35 0
x-964 10 11 21 22 23 30 31 37 40 0
961 962 963 964 0
x-965 1 3 4 5 8 10 11 14 15 16 0
x-966 1 3 4 17 19 20 21 22 23 25 26 28 0
x-967 5 8 17 19 20 30 31 34 35 36 0
x-968 10 11 21 22 23 30 31 37 39 40 0
965 966 967 968 0
x-969 1 3 4 5 8 10 11 13 14 15 0
x-970 1 3 4 17 19 20 21 22 23 26 27 0
x-971 5 8 17 19 20 30 31 33 34 35 0
x-972 10 11 21 22 23 30 31 37 38 40 0
969 970 971 972 0
x-973 1 3 4 5 8 10 11 13 14 16 0
x-974 1 3 4 17 19 20 21 22 23 26 27 28 0
x-975 5 8 17 19 20 30 31 33 34 36 0
x-976 10 11 21 22 23 30 31 37 38 39 0
973 974 975 976 0
x-977 1 3 4 5 8 10 11 12 13 16 0
x-978 1 3 4 17 19 20 21 22 24 25 27 28 0
x-979 5 8 17 19 20 30 31 32 33 36 0
x-980 10 11 12 21 22 24 30 31 32 37 38 39 0
977 978 979 980 0
x-981 1 3 4 5 8 10 11 12 13 15 16 0
x-982 1 3 4 17 19 20 21 22 24 25 28 0
x-983 5 8 17 19 20 30 31 32 33 35 36 0
x-984 10 11 12 21 22 24 30 31 32 37 38 40 0
981 982 983 984 0
x-985 1 3 4 5 8 10 11 12 14 15 0
x-986 1 3 4 17 19 20 21 22 24 25 26 27 0
x-987 5 8 17 19 20 30 31 32 34 35 0
x-988 10 11 12 21 22 24 30 31 32 37 39 40 0
985 986 987 988 0
x-989 1 3 4 5 8 10 11 12 14 15 16 0
x-990 1 3 4 17 19 20 21 22 24 25 26 28 0
x-991 5 8 17 19 20 30 31 32 34 35 36 0
x-992 10 11 12 21 22 24 30 31 32 37 40 0
989 990 991 992 0
x-993 1 3 4 5 8 10 11 12 13 14 15 0
x-994 1 3 4 17 19 20 21 22 24 26 27 0
x-995 5 8 17 19 20 30 31 32 33 34 35 0
x-996 10 11 12 21 22 24 30 31 32 38 39 40 0
993 994 995 996 0
x-997 1 3 4 5 8 10 11 12 13 14 16 0
x-998 1 3 4 17 19 20 21 22 24 26 27 28 0
x-999 5 8 17 19 20 30 31 32 33 34 36 0
x-1000 10 11 12 21 22 24 30 31 32 38 39 0
997 998 999 1000 0
x-1001 1 3 4 5 8 9 10 11 13 16 0
x-1002 1 3 4 17 19 20 22 23 25 27 28 0
x-1003 5 8 17 19 20 29 30 31 33 36 0
x-1004 9 10 11 22 23 29 30 31 38 39 40 0
1001 1002 1003 1004 0
x-1005 1 3 4 5 8 9 10 11 13 15 16 0
x-1006 1 3 4 17 19 20 22 23 25 28 0
x-1007 5 8 17 19 20 29 30 31 33 35 36 0
x-1008 9 10 11 22 23 29 30 31 38 39 0
1005 1006 1007 1008 0
x-1009 1 3 4 5 8 9 10 11 14 15 0
x-1010 1 3 4 17 19 20 22 23 25 26 27 0
x-1011 5 8 17 19 20 29 30 31 34 35 0
x-1012 9 10 11 22 23 29 30 31 37 38 40 0
1009 1010 1011 1012 0
x-1013 1 3 4 5 8 9 10 11 14 15 16 0
x-1014 1 3 4 17 19 20 22 23 25 26 28 0
x-1015 5 8 17 19 20 29 30 31 34 35 36 0
x-1016 9 10 11 22 23 29 30 31 37 38 39 0
1013 1014 1015 1016 0
x-1017 1 3 4 5 8 9 10 11 13 14 15 0
x-1018 1 3 4 17 19 20 22 23 26 27 0
x-1019 5 8 17 19 20 29 30 31 33 34 35 0
x-1020 9 10 11 22 23 29 30 31 37 40 0
1017 1018 1019 1020 0
x-1021 1 3 4 5 8 9 10 11 13 14 16 0
x-1022 1 3 4 17 19 20 22 23 26 27 28 0
x-1023 5 8 17 19 20 29 30 31 33 34 36 0
x-1024 9 10 11 22 23 29 30 31 37 39 40 0
1021 1022 1023 1024 0
x-1025 1 3 4 5 8 9 10 12 13 16 0
x-1026 1 3 4 17 19 20 22 23 24 25 27 28 0
x-1027 5 8 17 19 20 29 30 32 33 36 0
x-1028 9 10 12 22 23 24 29 30 32 37 38 40 0
1025 1026 1027 1028 0
x-1029 1 3 4 5 8 9 10 12 13 15 16 0
x-1030 1 3 4 17 19 20 22 23 24 25 28 0
x-1031 5 8 17 19 20 29 30 32 33 35 36 0
x-1032 9 10 12 22 23 24 29 30 32 37 38 39 0
1029 1030 1031 1032 0
x-1033 1 3 4 5 8 9 10 12 14 15 0
x-1034 1 3 4 17 19 20 22 23 24 25 26 27 0
x-1035 5 8 17 19 20 29 30 32 34 35 0
x-1036 9 10 12 22 23 24 29 30 32 38 39 40 0
1033 1034 1035 1036 0
x-1037 1 3 4 5 8 9 10 12 14 15 16 0
x-1038 1 3 4 17 19 20 22 23 24 25 26 28 0
x-1039 5 8 17 19 20 29 30 32 34 35 36 0
x-1040 9 10 12 22 23 24 29 30 32 38 39 0
1037 1038 1039 1040 0
x-1041 1 3 4 5 8 9 10 12 13 14 15 0
x-1042 1 3 4 17 19 20 22 23 24 26 27 0
x-1043 5 8 17 19 20 29 30 32 33 34 35 0
x-1044 9 10 12 22 23 24 29 30 32 37 39 40 0
1041 1042 1043 1044 0
x-1045 1 3 4 5 8 9 10 12 13 14 16 0
x-1046 1 3 4 17 19 20 22 23 24 26 27 28 0
x-1047 5 8 17 19 20 29 30 32 33 34 36 0
x-1048 9 10 12 22 23 24 29 30 32 37 40 0
1045 1046 1047 1048 0
x-1049 1 3 4 5 7 8 9 12 13 16 0
x-1050 1 3 4 17 20 21 23 24 25 27 28 0
x-1051 5 7 8 17 20 29 31 32 33 35 36 0
x-1052 9 12 21 23 24 29 31 32 37 40 0
1049 1050 1051 1052 0
x-1053 1 3 4 5 7 8 9 12 13 15 16 0
x-1054 1 3 4 17 20 21 23 24 25 28 0
x-1055 5 7 8 17 20 29 31 32 33 36 0
x-1056 9 12 21 23 24 29 31 32 37 39 40 0
1053 1054 1055 1056 0
x-1057 1 3 4 5 7 8 9 12 14 15 0
x-1058 1 3 4 17 20 21 23 24 25 26 27 0
x-1059 5 7 8 17 20 29 31 32 33 34 35 0
x-1060 9 12 21 23 24 29 31 32 38 39 0
1057 1058 1059 1060 0
x-1061 1 3 4 5 7 8 9 12 14 15 16 0
x-1062 1 3 4 17 20 21 23 24 25 26 28 0
x-1063 5 7 8 17 20 29 31 32 33 34 36 0
x-1064 9 12 21 23 24 29 31 32 38 39 40 0
1061 1062 1063 1064 0
x-1065 1 3 4 5 7 8 9 12 13 14 15 0
x-1066 1 3 4 17 20 21 23 24 26 27 0
x-1067 5 7 8 17 20 29 31 32 34 35 0
x-1068 9 12 21 23 24 29 31 32 37 38 39 0
1065 1066 1067 1068 0
x-1069 1 3 4 5 7 8 9 12 13 14 16 0
x-1070 1 3 4 17 20 21 23 24 26 27 28 0
x-1071 5 7 8 17 20 29 31 32 34 35 36 0
x-1072 9 12 21 23 24 29 31 32 37 38 40 0
1069 1070 1071 1072 0
x-1073 1 3 4 5 7 8 9 11 12 13 16 0
x-1074 1 3 4 17 20 21 24 25 27 28 0
x-1075 5 7 8 17 20 29 32 33 35 36 0
x-1076 9 11 12 21 24 29 32 37 39 40 0
1073 1074 1075 1076 0
x-1077 1 3 4 5 7 8 9 11 12 13 15 16 0
x-1078 1 3 4 17 20 21 24 25 28 0
x-1079 5 7 8 17 20 29 32 33 36 0
x-1080 9 11 12 21 24 29 32 37 40 0
1077 1078 1079 1080 0
x-1081 1 3 4 5 7 8 9 11 12 14 15 0
x-1082 1 3 4 17 20 21 24 25 26 27 0
x-1083 5 7 8 17 20 29 32 33 34 35 0
x-1084 9 11 12 21 24 29 32 37 38 39 0
1081 1082 1083 1084 0
x-1085 1 3 4 5 7 8 9 11 12 14 15 16 0
x-1086 1 3 4 17 20 21 24 25 26 28 0
x-1087 5 7 8 17 20 29 32 33 34 36 0
x-1088 9 11 12 21 24 29 32 37 38 40 0
1085 1086 1087 1088 0
x-1089 1 3 4 5 7 8 9 11 12 13 14 15 0
x-1090 1 3 4 17 20 21 24 26 27 0
x-1091 5 7 8 17 20 29 32 34 35 0
x-1092 9 11 12 21 24 29 32 38 39 0
1089 1090 1091 1092 0
x-1093 1 3 4 5 7 8 9 11 12 13 14 16 0
x-1094 1 3 4 17 20 21 24 26 27 28 0
x-1095 5 7 8 17 20 29 32 34 35 36 0
x-1096 9 11 12 21 24 29 32 38 39 40 0
1093 1094 1095 1096 0
x-1097 1 3 4 5 7 8 10 11 13 16 0
x-1098 1 3 4 17 20 21 22 23 25 27 28 0
x-1099 5 7 8 17 20 29 30 31 33 35 36 0
x-1100 10 11 21 22 23 29 30 31 38 39 0
1097 1098 1099 1100 0
x-1101 1 3 4 5 7 8 10 11 13 15 16 0
x-1102 1 3 4 17 20 21 22 23 25 28 0
x-1103 5 7 8 17 20 29 30 31 33 36 0
x-1104 10 11 21 22 23 29 30 31 38 39 40 0
1101 1102 1103 1104 0
x-1105 1 3 4 5 7 8 10 11 14 15 0
x-1106 1 3 4 17 20 21 22 23 25 26 27 0
x-1107 5 7 8 17 20 29 30 31 33 34 35 0
x-1108 10 11 21 22 23 29 30 31 37 40 0
1105 1106 1107 1108 0
x-1109 1 3 4 5 7 8 10 11 14 15 16 0
x-1110 1 3 4 17 20 21 22 23 25 26 28 0
x-1111 5 7 8 17 20 29 30 31 33 34 36 0
x-1112 10 11 21 22 23 29 30 31 37 39 40 0
1109 1110 1111 1112 0
x-1113 1 3 4 5 7 8 10 11 13 14 15 0
x-1114 1 3 4 17 20 21 22 23 26 27 0
x-1115 5 7 8 17 20 29 30 31 34 35 0
x-1116 10 11 21 22 23 29 30 31 37 38 40 0
1113 1114 1115 1116 0
x-1117 1 3 4 5 7 8 10 11 13 14 16 0
x-1118 1 3 4 17 20 21 22 23 26 27 28 0
x-1119 5 7 8 17 20 29 30 31 34 35 36 0
x-1120 10 11 21 22 23 29 30 31 37 38 39 0
1117 1118 1119 1120 0
x-1121 1 3 4 5 7 8 10 11 12 13 16 0
x-1122 1 3 4 17 20 21 22 24 25 27 28 0
x-1123 5 7 8 17 20 29 30 32 33 35 36 0
x-1124 10 11 12 21 22 24 29 30 32 37 38 39 0
1121 1122 1123 1124 0
x-1125 1 3 4 5 7 8 10 11 12 13 15 16 0
x-1126 1 3 4 17 20 21 22 24 25 28 0
x-1127 5 7 8 17 20 29 30 32 33 36 0
x-1128 10 11 12 21 22 24 29 30 32 37 38 40 0
1125 1126 1127 1128 0
x-1129 1 3 4 5 7 8 10 11 12 14 15 0
x-1130 1 3 4 17 20 21 22 24 25 26 27 0
x-1131 5 7 8 17 20 29 30 32 33 34 35 0
x-1132 10 11 12 21 22 24 29 30 32 37 39 40 0
1129 1130 1131 1132 0
x-1133 1 3 4 5 7 8 10 11 12 14 15 16 0
x-1134 1 3 4 17 20 21 22 24 25 26 28 0
x-1135 5 7 8 17 20 29 30 32 33 34 36 0
x-1136 10 11 12 21 22 24 29 30 32 37 40 0
1133 1134 1135 1136 0
x-1137 1 3 4 5 7 8 10 11 12 13 14 15 0
x-1138 1 3 4 17 20 21 22 24 26 27 0
x-1139 5 7 8 17 20 29 30 32 34 35 0
x-1140 10 11 12 21 22 24 29 30 32 38 39 40 0
1137 1138 1139 1140 0
x-1141 1 3 4 5 7 8 10 11 12 13 14 16 0
x-1142 1 3 4 17 20 21 22 24 26 27 28 0
x-1143 5 7 8 17 20 29 30 32 34 35 36 0
x-1144 10 11 12 21 22 24 29 30 32 38 39 0
1141 1142 1143 1144 0
x-1145 1 3 4 5 7 8 9 10 11 13 16 0
x-1146 1 3 4 17 20 22 23 25 27 28 0
x-1147 5 7 8 17 20 30 31 33 35 36 0
x-1148 9 10 11 22 23 30 31 38 39 40 0
1145 1146 1147 1148 0
x-1149 1 3 4 5 7 8 9 10 11 13 15 16 0
x-1150 1 3 4 17 20 22 23 25 28 0
x-1151 5 7 8 17 20 30 31 33 36 0
x-1152 9 10 11 22 23 30 31 38 39 0
1149 1150 1151 1152 0
x-1153 1 3 4 5 7 8 9 10 11 14 15 0
x-1154 1 3 4 17 20 22 23 25 26 27 0
x-1155 5 7 8 17 20 30 31 33 34 35 0
x-1156 9 10 11 22 23 30 31 37 38 40 0
1153 1154 1155 1156 0
x-1157 1 3 4 5 7 8 9 10 11 14 15 16 0
x-1158 1 3 4 17 20 22 23 25 26 28 0
x-1159 5 7 8 17 20 30 31 33 34 36 0
x-1160 9 10 11 22 23 30 31 37 38 39 0
1157 1158 1159 1160 0
x-1161 1 3 4 5 7 8 9 10 11 13 14 15 0
x-1162 1 3 4 17 20 22 23 26 27 0
x-1163 5 7 8 17 20 30 31 34 35 0
x-1164 9 10 11 22 23 30 31 37 40 0
1161 1162 1163 1164 0
x-1165 1 3 4 5 7 8 9 10 11 13 14 16 0
x-1166 1 3 4 17 20 22 23 26 27 28 0
x-1167 5 7 8 17 20 30 31 34 35 36 0
x-1168 9 10 11 22 23 30 31 37 39 40 0
1165 1166 1167 1168 0
x-1169 1 3 4 5 7 8 9 10 12 13 16 0
x-1170 1 3 4 17 20 22 23 24 25 27 28 0
x-1171 5 7 8 17 20 30 31 32 33 35 36 0
x-1172 9 10 12 22 23 24 30 31 32 37 38 40 0
1169 1170 1171 1172 0
x-1173 1 3 4 5 7 8 9 10 12 13 15 16 0
x-1174 1 3 4 17 20 22 23 24 25 28 0
x-1175 5 7 8 17 20 30 31 32 33 36 0
x-1176 9 10 12 22 23 24 30 31 32 37 38 39 0
1173 1174 1175 1176 0
x-1177 1 3 4 5 7 8 9 10 12 14 15 0
x-1178 1 3 4 17 20 22 23 24 25 26 27 0
x-1179 5 7 8 17 20 30 31 32 33 34 35 0
x-1180 9 10 12 22 23 24 30 31 32 38 39 40 0
1177 1178 1179 1180 0
x-1181 1 3 4 5 7 8 9 10 12 14 15 16 0
x-1182 1 3 4 17 20 22 23 24 25 26 28 0
x-1183 5 7 8 17 20 30 31 32 33 34 36 0
x-1184 9 10 12 22 23 24 30 31 32 38 39 0
1181 1182 1183 1184 0
x-1185 1 3 4 5 7 8 9 10 12 13 14 15 0
x-1186 1 3 4 17 20 22 23 24 26 27 0
x-1187 5 7 8 17 20 30 31 32 34 35 0
x-1188 9 10 12 22 23 24 30 31 32 37 39 40 0
1185 1186 1187 1188 0
x-1189 1 3 4 5 7 8 9 10 12 13 14 16 0
x-1190 1 3 4 17 20 22 23 24 26 27 28 0
x-1191 5 7 8 17 20 30 31 32 34 35 36 0
x-1192 9 10 12 22 23 24 30 31 32 37 40 0
1189 1190 1191 1192 0
x-1193 1 3 4 6 7 9 12 13 16 0
x-1194 1 3 4 17 18 19 21 23 24 25 27 28 0
x-1195 6 7 17 18 19 30 31 34 35 0
x-1196 9 12 21 23 24 30 31 37 40 0
1193 1194 1195 1196 0
x-1197 1 3 4 6 7 9 12 13 15 16 0
x-1198 1 3 4 17 18 19 21 23 24 25 28 0
x-1199 6 7 17 18 19 30 31 34 35 36 0
x-1200 9 12 21 23 24 30 31 37 39 40 0
1197 1198 1199 1200 0
x-1201 1 3 4 6 7 9 12 14 15 0
x-1202 1 3 4 17 18 19 21 23 24 25 26 27 0
x-1203 6 7 17 18 19 30 31 33 36 0
x-1204 9 12 21 23 24 30 31 38 39 0
1201 1202 1203 1204 0
x-1205 1 3 4 6 7 9 12 14 15 16 0
x-1206 1 3 4 17 18 19 21 23 24 25 26 28 0
x-1207 6 7 17 18 19 30 31 33 35 36 0
x-1208 9 12 21 23 24 30 31 38 39 40 0
1205 1206 1207 1208 0
x-1209 1 3 4 6 7 9 12 13 14 15 0
x-1210 1 3 4 17 18 19 21 23 24 26 27 0
x-1211 6 7 17 18 19 30 31 33 34 36 0
x-1212 9 12 21 23 24 30 31 37 38 39 0
1209 1210 1211 1212 0
x-1213 1 3 4 6 7 9 12 13 14 16 0
x-1214 1 3 4 17 18 19 21 23 24 26 27 28 0
x-1215 6 7 17 18 19 30 31 33 34 35 0
x-1216 9 12 21 23 24 30 31 37 38 40 0
1213 1214 1215 1216 0
x-1217 1 3 4 6 7 9 11 12 13 16 0
x-1218 1 3 4 17 18 19 21 24 25 27 28 0
x-1219 6 7 17 18 19 30 31 32 34 35 0
x-1220 9 11 12 21 24 30 31 32 37 39 40 0
1217 1218 1219 1220 0
x-1221 1 3 4 6 7 9 11 12 13 15 16 0
x-1222 1 3 4 17 18 19 21 24 25 28 0
x-1223 6 7 17 18 19 30 31 32 34 35 36 0
x-1224 9 11 12 21 24 30 31 32 37 40 0
1221 1222 1223 1224 0
x-1225 1 3 4 6 7 9 11 12 14 15 0
x-1226 1 3 4 17 18 19 21 24 25 26 27 0
x-1227 6 7 17 18 19 30 31 32 33 36 0
x-1228 9 11 12 21 24 30 31 32 37 38 39 0
1225 1226 1227 1228 0
x-1229 1 3 4 6 7 9 11 12 14 15 16 0
x-1230 1 3 4 17 18 19 21 24 25 26 28 0
x-1231 6 7 17 18 19 30 31 32 33 35 36 0
x-1232 9 11 12 21 24 30 31 32 37 38 40 0
1229 1230 1231 1232 0
x-1233 1 3 4 6 7 9 11 12 13 14 15 0
x-1234 1 3 4 17 18 19 21 24 26 27 0
x-1235 6 7 17 18 19 30 31 32 33 34 36 0
x-1236 9 11 12 21 24 30 31 32 38 39 0
1233 1234 1235 1236 0
x-1237 1 3 4 6 7 9 11 12 13 14 16 0
x-1238 1 3 4 17 18 19 21 24 26 27 28 0
x-1239 6 7 17 18 19 30 31 32 33 34 35 0
x-1240 9 11 12 21 24 30 31 32 38 39 40 0
1237 1238 1239 1240 0
x-1241 1 3 4 6 7 10 11 13 16 0
x-1242 1 3 4 17 18 19 21 22 23 25 27 28 0
x-1243 6 7 17 18 19 29 32 34 35 0
x-1244 10 11 21 22 23 29 32 38 39 0
1241 1242 1243 1244 0
x-1245 1 3 4 6 7 10 11 13 15 16 0
x-1246 1 3 4 17 18 19 21 22 23 25 28 0
x-1247 6 7 17 18 19 29 32 34 35 36 0
x-1248 10 11 21 22 23 29 32 38 39 40 0
1245 1246 1247 1248 0
x-1249 1 3 4 6 7 10 11 14 15 0
x-1250 1 3 4 17 18 19 21 22 23 25 26 27 0
x-1251 6 7 17 18 19 29 32 33 36 0
x-1252 10 11 21 22 23 29 32 37 40 0
1249 1250 1251 1252 0
x-1253 1 3 4 6 7 10 11 14 15 16 0
x-1254 1 3 4 17 18 19 21 22 23 25 26 28 0
x-1255 6 7 17 18 19 29 32 33 35 36 0
x-1256 10 11 21 22 23 29 32 37 39 40 0
1253 1254 1255 1256 0
x-1257 1 3 4 6 7 10 11 13 14 15 0
x-1258 1 3 4 17 18 19 21 22 23 26 27 0
x-1259 6 7 17 18 19 29 32 33 34 36 0
x-1260 10 11 21 22 23 29 32 37 38 40 0
1257 1258 1259 1260 0
x-1261 1 3 4 6 7 10 11 13 14 16 0
x-1262 1 3 4 17 18 19 21 22 23 26 27 28 0
x-1263 6 7 17 18 19 29 32 33 34 35 0
x-1264 10 11 21 22 23 29 32 37 38 39 0
1261 1262 1263 1264 0
x-1265 1 3 4 6 7 10 11 12 13 16 0
x-1266 1 3 4 17 18 19 21 22 24 25 27 28 0
x-1267 6 7 17 18 19 29 31 32 34 35 0
x-1268 10 11 12 21 22 24 29 31 32 37 38 39 0
1265 1266 1267 1268 0
x-1269 1 3 4 6 7 10 11 12 13 15 16 0
x-1270 1 3 4 17 18 19 21 22 24 25 28 0
x-1271 6 7 17 18 19 29 31 32 34 35 36 0
x-1272 10 11 12 21 22 24 29 31 32 37 38 40 0
1269 1270 1271 1272 0
x-1273 1 3 4 6 7 10 11 12 14 15 0
x-1274 1 3 4 17 18 19 21 22 24 25 26 27 0
x-1275 6 7 17 18 19 29 31 32 33 36 0
x-1276 10 11 12 21 22 24 29 31 32 37 39 40 0
1273 1274 1275 1276 0
x-1277 1 3 4 6 7 10 11 12 14 15 16 0
x-1278 1 3 4 17 18 19 21 22 24 25 26 28 0
x-1279 6 7 17 18 19 29 31 32 33 35 36 0
x-1280 10 11 12 21 22 24 29 31 32 37 40 0
1277 1278 1279 1280 0
x-1281 1 3 4 6 7 10 11 12 13 14 15 0
x-1282 1 3 4 17 18 19 21 22 24 26 27 0
x-1283 6 7 17 18 19 29 31 32 33 34 36 0
x-1284 10 11 12 21 22 24 29 31 32 38 39 40 0
1281 1282 1283 1284 0
x-1285 1 3 4 6 7 10 11 12 13 14 16 0
x-1286 1 3 4 17 18 19 21 22 24 26 27 28 0
x-1287 6 7 17 18 19 29 31 32 33 34 35 0
x-1288 10 11 12 21 22 24 29 31 32 38 39 0
1285 1286 1287 1288 0
x-1289 1 3 4 6 7 9 10 11 13 16 0
x-1290 1 3 4 17 18 19 22 23 25 27 28 0
x-1291 6 7 17 18 19 29 30 32 34 35 0
x-1292 9 10 11 22 23 29 30 32 38 39 40 0
1289 1290 1291 1292 0
x-1293 1 3 4 6 7 9 10 11 13 15 16 0
x-1294 1 3 4 17 18 19 22 23 25 28 0
x-1295 6 7 17 18 19 29 30 32 34 35 36 0
x-1296 9 10 11 22 23 29 30 32 38 39 0
1293 1294 1295 1296 0
x-1297 1 3 4 6 7 9 10 11 14 15 0
x-1298 1 3 4 17 18 19 22 23 25 26 27 0
x-1299 6 7 17 18 19 29 30 32 33 36 0
x-1300 9 10 11 22 23 29 30 32 37 38 40 0
1297 1298 1299 1300 0
x-1301 1 3 4 6 7 9 10 11 14 15 16 0
x-1302 1 3 4 17 18 19 22 23 25 26 28 0
x-1303 6 7 17 18 19 29 30 32 33 35 36 0
x-1304 9 10 11 22 23 29 30 32 37 38 39 0
1301 1302 1303 1304 0
x-1305 1 3 4 6 7 9 10 11 13 14 15 0
x-1306 1 3 4 17 18 19 22 23 26 27 0
x-1307 6 7 17 18 19 29 30 32 33 34 36 0
x-1308 9 10 11 22 23 29 30 32 37 40 0
1305 1306 1307 1308 0
x-1309 1 3 4 6 7 9 10 11 13 14 16 0
x-1310 1 3 4 17 18 19 22 23 26 27 28 0
x-1311 6 7 17 18 19 29 30 32 33 34 35 0
x-1312 9 10 11 22 23 29 30 32 37 39 40 0
1309 1310 1311 1312 0
x-1313 1 3 4 6 7 9 10 12 13 16 0
x-1314 1 3 4 17 18 19 22 23 24 25 27 28 0
x-1315 6 7 17 18 19 29 30 31 34 35 0
x-1316 9 10 12 22 23 24 29 30 31 37 38 40 0
1313 1314 1315 1316 0
x-1317 1 3 4 6 7 9 10 12 13 15 16 0
x-1318 1 3 4 17 18 19 22 23 24 25 28 0
x-1319 6 7 17 18 19 29 30 31 34 35 36 0
x-1320 9 10 12 22 23 24 29 30 31 37 38 39 0
1317 1318 1319 1320 0
x-1321 1 3 4 6 7 9 10 12 14 15 0
x-1322 1 3 4 17 18 19 22 23 24 25 26 27 0
x-1323 6 7 17 18 19 29 30 31 33 36 0
x-1324 9 10 12 22 23 24 29 30 31 38 39 40 0
1321 1322 1323 1324 0
x-1325 1 3 4 6 7 9 10 12 14 15 16 0
x-1326 1 3 4 17 18 19 22 23 24 25 26 28 0
x-1327 6 7 17 18 19 29 30 31 33 35 36 0
x-1328 9 10 12 22 23 24 29 30 31 38 39 0
1325 1326 1327 1328 0
x-1329 1 3 4 6 7 9 10 12 13 14 15 0
x-1330 1 3 4 17 18 19 22 23 24 26 27 0
x-1331 6 7 17 18 19 29 30 31 33 34 36 0
x-1332 9 10 12 22 23 24 29 30 31 37 39 40 0
1329 1330 1331 1332 0
x-1333 1 3 4 6 7 9 10 12 13 14 16 0
x-1334 1 3 4 17 18 19 22 23 24 26 27 28 0
x-1335 6 7 17 18 19 29 30 31 33 34 35 0
x-1336 9 10 12 22 23 24 29 30 31 37 40 0
1333 1334 1335 1336 0
x-1337 1 3 4 6 7 8 9 12 13 16 0
x-1338 1 3 4 17 18 20 21 23 24 25 27 28 0
x-1339 6 7 8 17 18 20 29 30 31 33 34 35 0
x-1340 9 12 21 23 24 29 30 31 37 40 0
1337 1338 1339 1340 0
x-1341 1 3 4 6 7 8 9 12 13 15 16 0
x-1342 1 3 4 17 18 20 21 23 24 25 28 0
x-1343 6 7 8 17 18 20 29 30 31 33 34 36 0
x-1344 9 12 21 23 24 29 30 31 37 39 40 0
1341 1342 1343 1344 0
x-1345 1 3 4 6 7 8 9 12 14 15 0
x-1346 1 3 4 17 18 20 21 23 24 25 26 27 0
x-1347 6 7 8 17 18 20 29 30 31 33 35 36 0
x-1348 9 12 21 23 24 29 30 31 38 39 0
1345 1346 1347 1348 0
x-1349 1 3 4 6 7 8 9 12 14 15 16 0
x-1350 1 3 4 17 18 20 21 23 24 25 26 28 0
x-1351 6 7 8 17 18 20 29 30 31 33 36 0
x-1352 9 12 21 23 24 29 30 31 38 39 40 0
1349 1350 1351 1352 0
x-1353 1 3 4 6 7 8 9 12 13 14 15 0
x-1354 1 3 4 17 18 20 21 23 24 26 27 0
x-1355 6 7 8 17 18 20 29 30 31 34 35 36 0
x-1356 9 12 21 23 24 29 30 31 37 38 39 0
1353 1354 1355 1356 0
x-1357 1 3 4 6 7 8 9 12 13 14 16 0
x-1358 1 3 4 17 18 20 21 23 24 26 27 28 0
x-1359 6 7 8 17 18 20 29 30 31 34 35 0
x-1360 9 12 21 23 24 29 30 31 37 38 40 0
1357 1358 1359 1360 0
x-1361 1 3 4 6 7 8 9 11 12 13 16 0
x-1362 1 3 4 17 18 20 21 24 25 27 28 0
x-1363 6 7 8 17 18 20 29 30 32 33 34 35 0
x-1364 9 11 12 21 24 29 30 32 37 39 40 0
1361 1362 1363 1364 0
x-1365 1 3 4 6 7 8 9 11 12 13 15 16 0
x-1366 1 3 4 17 18 20 21 24 25 28 0
x-1367 6 7 8 17 18 20 29 30 32 33 34 36 0
x-1368 9 11 12 21 24 29 30 32 37 40 0
1365 1366 1367 1368 0
x-1369 1 3 4 6 7 8 9 11 12 14 15 0
x-1370 1 3 4 17 18 20 21 24 25 26 27 0
x-1371 6 7 8 17 18 20 29 30 32 33 35 36 0
x-1372 9 11 12 21 24 29 30 32 37 38 39 0
1369 1370 1371 1372 0
x-1373 1 3 4 6 7 8 9 11 12 14 15 16 0
x-1374 1 3 4 17 18 20 21 24 25 26 28 0
x-1375 6 7 8 17 18 20 29 30 32 33 36 0
x-1376 9 11 12 21 24 29 30 32 37 38 40 0
1373 1374 1375 1376 0
x-1377 1 3 4 6 7 8 9 11 12 13 14 15 0
x-1378 1 3 4 17 18 20 21 24 26 27 0
x-1379 6 7 8 17 18 20 29 30 32 34 35 36 0
x-1380 9 11 12 21 24 29 30 32 38 39 0
1377 1378 1379 1380 0
x-1381 1 3 4 6 7 8 9 11 12 13 14 16 0
x-1382 1 3 4 17 18 20 21 24 26 27 28 0
x-1383 6 7 8 17 18 20 29 30 32 34 35 0
x-1384 9 11 12 21 24 29 30 32 38 39 40 0
1381 1382 1383 1384 0
x-1385 1 3 4 6 7 8 10 11 13 16 0
x-1386 1 3 4 17 18 20 21 22 23 25 27 28 0
x-1387 6 7 8 17 18 20 29 31 32 33 34 35 0
x-1388 10 11 21 22 23 29 31 32 38 39 0
1385 1386 1387 1388 0
x-1389 1 3 4 6 7 8 10 11 13 15 16 0
x-1390 1 3 4 17 18 20 21 22 23 25 28 0
x-1391 6 7 8 17 18 20 29 31 32 33 34 36 0
x-1392 10 11 21 22 23 29 31 32 38 39 40 0
1389 1390 1391 1392 0
x-1393 1 3 4 6 7 8 10 11 14 15 0
x-1394 1 3 4 17 18 20 21 22 23 25 26 27 0
x-1395 6 7 8 17 18 20 29 31 32 33 35 36 0
x-1396 10 11 21 22 23 29 31 32 37 40 0
1393 1394 1395 1396 0
x-1397 1 3 4 6 7 8 10 11 14 15 16 0
x-1398 1 3 4 17 18 20 21 22 23 25 26 28 0
x-1399 6 7 8 17 18 20 29 31 32 33 36 0
x-1400 10 11 21 22 23 29 31 32 37 39 40 0
1397 1398 1399 1400 0
x-1401 1 3 4 6 7 8 10 11 13 14 15 0
x-1402 1 3 4 17 18 20 21 22 23 26 27 0
x-1403 6 7 8 17 18 20 29 31 32 34 35 36 0
x-1404 10 11 21 22 23 29 31 32 37 38 40 0
1401 1402 1403 1404 0
x-1405 1 3 4 6 7 8 10 11 13 14 16 0
x-1406 1 3 4 17 18 20 21 22 23 26 27 28 0
x-1407 6 7 8 17 18 20 29 31 32 34 35 0
x-1408 10 11 21 22 23 29 31 32 37 38 39 0
1405 1406 1407 1408 0
x-1409 1 3 4 6 7 8 10 11 12 13 16 0
x-1410 1 3 4 17 18 20 21 22 24 25 27 28 0
x-1411 6 7 8 17 18 20 29 32 33 34 35 0
x-1412 10 11 12 21 22 24 29 32 37 38 39 0
1409 1410 1411 1412 0
x-1413 1 3 4 6 7 8 10 11 12 13 15 16 0
x-1414 1 3 4 17 18 20 21 22 24 25 28 0
x-1415 6 7 8 17 18 20 29 32 33 34 36 0
x-1416 10 11 12 21 22 24 29 32 37 38 40 0
1413 1414 1415 1416 0
x-1417 1 3 4 6 7 8 10 11 12 14 15 0
x-1418 1 3 4 17 18 20 21 22 24 25 26 27 0
x-1419 6 7 8 17 18 20 29 32 33 35 36 0
x-1420 10 11 12 21 22 24 29 32 37 39 40 0
1417 1418 1419 1420 0
x-1421 1 3 4 6 7 8 10 11 12 14 15 16 0
x-1422 1 3 4 17 18 20 21 22 24 25 26 28 0
x-1423 6 7 8 17 18 20 29 32 33 36 0
x-1424 10 11 12 21 22 24 29 32 37 40 0
1421 1422 1423 1424 0
x-1425 1 3 4 6 7 8 10 11 12 13 14 15 0
x-1426 1 3 4 17 18 20 21 22 24 26 27 0
x-1427 6 7 8 17 18 20 29 32 34 35 36 0
x-1428 10 11 12 21 22 24 29 32 38 39 40 0
1425 1426 1427 1428 0
x-1429 1 3 4 6 7 8 10 11 12 13 14 16 0
x-1430 1 3 4 17 18 20 21 22 24 26 27 28 0
x-1431 6 7 8 17 18 20 29 32 34 35 0
x-1432 10 11 12 21 22 24 29 32 38 39 0
1429 1430 1431 1432 0
x-1433 1 3 4 6 7 8 9 10 11 13 16 0
x-1434 1 3 4 17 18 20 22 23 25 27 28 0
x-1435 6 7 8 17 18 20 30 31 32 33 34 35 0
x-1436 9 10 11 22 23 30 31 32 38 39 40 0
1433 1434 1435 1436 0
x-1437 1 3 4 6 7 8 9 10 11 13 15 16 0
x-1438 1 3 4 17 18 20 22 23 25 28 0
x-1439 6 7 8 17 18 20 30 31 32 33 34 36 0
x-1440 9 10 11 22 23 30 31 32 38 39 0
1437 1438 1439 1440 0
x-1441 1 3 4 6 7 8 9 10 11 14 15 0
x-1442 1 3 4 17 18 20 22 23 25 26 27 0
x-1443 6 7 8 17 18 20 30 31 32 33 35 36 0
x-1444 9 10 11 22 23 30 31 32 37 38 40 0
1441 1442 1443 1444 0
x-1445 1 3 4 6 7 8 9 10 11 14 15 16 0
x-1446 1 3 4 17 18 20 22 23 25 26 28 0
x-1447 6 7 8 17 18 20 30 31 32 33 36 0
x-1448 9 10 11 22 23 30 31 32 37 38 39 0
1445 1446 1447 1448 0
x-1449 1 3 4 6 7 8 9 10 11 13 14 15 0
x-1450 1 3 4 17 18 20 22 23 26 27 0
x-1451 6 7 8 17 18 20 30 31 32 34 35 36 0
x-1452 9 10 11 22 23 30 31 32 37 40 0
1449 1450 1451 1452 0
x-1453 1 3 4 6 7 8 9 10 11 13 14 16 0
x-1454 1 3 4 17 18 20 22 23 26 27 28 0
x-1455 6 7 8 17 18 20 30 31 32 34 35 0
x-1456 9 10 11 22 23 30 31 32 37 39 40 0
1453 1454 1455 1456 0
x-1457 1 3 4 6 7 8 9 10 12 13 16 0
x-1458 1 3 4 17 18 20 22 23 24 25 27 28 0
x-1459 6 7 8 17 18 20 30 31 33 34 35 0
x-1460 9 10 12 22 23 24 30 31 37 38 40 0
1457 1458 1459 1460 0
x-1461 1 3 4 6 7 8 9 10 12 13 15 16 0
x-1462 1 3 4 17 18 20 22 23 24 25 28 0
x-1463 6 7 8 17 18 20 30 31 33 34 36 0
x-1464 9 10 12 22 23 24 30 31 37 38 39 0
1461 1462 1463 1464 0
x-1465 1 3 4 6 7 8 9 10 12 14 15 0
x-1466 1 3 4 17 18 20 22 23 24 25 26 27 0
x-1467 6 7 8 17 18 20 30 31 33 35 36 0
x-1468 9 10 12 22 23 24 30 31 38 39 40 0
1465 1466 1467 1468 0
x-1469 1 3 4 6 7 8 9 10 12 14 15 16 0
x-1470 1 3 4 17 18 20 22 23 24 25 26 28 0
x-1471 6 7 8 17 18 20 30 31 33 36 0
x-1472 9 10 12 22 23 24 30 31 38 39 0
1469 1470 1471 1472 0
x-1473 1 3 4 6 7 8 9 10 12 13 14 15 0
x-1474 1 3 4 17 18 20 22 23 24 26 27 0
x-1475 6 7 8 17 18 20 30 31 34 35 36 0
x-1476 9 10 12 22 23 24 30 31 37 39 40 0
1473 1474 1475 1476 0
x-1477 1 3 4 6 7 8 9 10 12 13 14 16 0
x-1478 1 3 4 17 18 20 22 23 24 26 27 28 0
x-1479 6 7 8 17 18 20 30 31 34 35 0
x-1480 9 10 12 22 23 24 30 31 37 40 0
1477 1478 1479 1480 0
x-1481 1 3 4 5 6 7 9 12 13 16 0
x-1482 1 3 4 18 19 21 23 24 25 27 28 0
x-1483 5 6 7 18 19 30 31 32 34 35 36 0
x-1484 9 12 21 23 24 30 31 32 37 40 0
1481 1482 1483 1484 0
x-1485 1 3 4 5 6 7 9 12 13 15 16 0
x-1486 1 3 4 18 19 21 23 24 25 28 0
x-1487 5 6 7 18 19 30 31 32 34 35 0
x-1488 9 12 21 23 24 30 31 32 37 39 40 0
1485 1486 1487 1488 0
x-1489 1 3 4 5 6 7 9 12 14 15 0
x-1490 1 3 4 18 19 21 23 24 25 26 27 0
x-1491 5 6 7 18 19 30 31 32 33 34 36 0
x-1492 9 12 21 23 24 30 31 32 38 39 0
1489 1490 1491 1492 0
x-1493 1 3 4 5 6 7 9 12 14 15 16 0
x-1494 1 3 4 18 19 21 23 24 25 26 28 0
x-1495 5 6 7 18 19 30 31 32 33 34 35 0
x-1496 9 12 21 23 24 30 31 32 38 39 40 0
1493 1494 1495 1496 0
x-1497 1 3 4 5 6 7 9 12 13 14 15 0
x-1498 1 3 4 18 19 21 23 24 26 27 0
x-1499 5 6 7 18 19 30 31 32 33 36 0
x-1500 9 12 21 23 24 30 31 32 37 38 39 0
1497 1498 1499 1500 0
x-1501 1 3 4 5 6 7 9 12 13 14 16 0
x-1502 1 3 4 18 19 21 23 24 26 27 28 0
x-1503 5 6 7 18 19 30 31 32 33 35 36 0
x-1504 9 12 21 23 24 30 31 32 37 38 40 0
1501 1502 1503 1504 0
x-1505 1 3 4 5 6 7 9 11 12 13 16 0
x-1506 1 3 4 18 19 21 24 25 27 28 0
x-1507 5 6 7 18 19 30 31 34 35 36 0
x-1508 9 11 12 21 24 30 31 37 39 40 0
1505 1506 1507 1508 0
x-1509 1 3 4 5 6 7 9 11 12 13 15 16 0
x-1510 1 3 4 18 19 21 24 25 28 0
x-1511 5 6 7 18 19 30 31 34 35 0
x-1512 9 11 12 21 24 30 31 37 40 0
1509 1510 1511 1512 0
x-1513 1 3 4 5 6 7 9 11 12 14 15 0
x-1514 1 3 4 18 19 21 24 25 26 27 0
x-1515 5 6 7 18 19 30 31 33 34 36 0
x-1516 9 11 12 21 24 30 31 37 38 39 0
1513 1514 1515 1516 0
x-1517 1 3 4 5 6 7 9 11 12 14 15 16 0
x-1518 1 3 4 18 19 21 24 25 26 28 0
x-1519 5 6 7 18 19 30 31 33 34 35 0
x-1520 9 11 12 21 24 30 31 37 38 40 0
1517 1518 1519 1520 0
x-1521 1 3 4 5 6 7 9 11 12 13 14 15 0
x-1522 1 3 4 18 19 21 24 26 27 0
x-1523 5 6 7 18 19 30 31 33 36 0
x-1524 9 11 12 21 24 30 31 38 39 0
1521 1522 1523 1524 0
x-1525 1 3 4 5 6 7 9 11 12 13 14 16 0
x-1526 1 3 4 18 19 21 24 26 27 28 0
x-1527 5 6 7 18 19 30 31 33 35 36 0
x-1528 9 11 12 21 24 30 31 38 39 40 0
1525 1526 1527 1528 0
x-1529 1 3 4 5 6 7 10 11 13 16 0
x-1530 1 3 4 18 19 21 22 23 25 27 28 0
x-1531 5 6 7 18 19 29 30 32 34 35 36 0
x-1532 10 11 21 22 23 29 30 32 38 39 0
1529 1530 1531 1532 0
x-1533 1 3 4 5 6 7 10 11 13 15 16 0
x-1534 1 3 4 18 19 21 22 23 25 28 0
x-1535 5 6 7 18 19 29 30 32 34 35 0
x-1536 10 11 21 22 23 29 30 32 38 39 40 0
1533 1534 1535 1536 0
x-1537 1 3 4 5 6 7 10 11 14 15 0
x-1538 1 3 4 18 19 21 22 23 25 26 27 0
x-1539 5 6 7 18 19 29 30 32 33 34 36 0
x-1540 10 11 21 22 23 29 30 32 37 40 0
1537 1538 1539 1540 0
x-1541 1 3 4 5 6 7 10 11 14 15 16 0
x-1542 1 3 4 18 19 21 22 23 25 26 28 0
x-1543 5 6 7 18 19 29 30 32 33 34 35 0
x-1544 10 11 21 22 23 29 30 32 37 39 40 0
1541 1542 1543 1544 0
x-1545 1 3 4 5 6 7 10 11 13 14 15 0
x-1546 1 3 4 18 19 21 22 23 26 27 0
x-1547 5 6 7 18 19 29 30 32 33 36 0
x-1548 10 11 21 22 23 29 30 32 37 38 40 0
1545 1546 1547 1548 0
x-1549 1 3 4 5 6 7 10 11 13 14 16 0
x-1550 1 3 4 18 19 21 22 23 26 27 28 0
x-1551 5 6 7 18 19 29 30 32 33 35 36 0
x-1552 10 11 21 22 23 29 30 32 37 38 39 0
1549 1550 1551 1552 0
x-1553 1 3 4 5 6 7 10 11 12 13 16 0
x-1554 1 3 4 18 19 21 22 24 25 27 28 0
x-1555 5 6 7 18 19 29 30 31 34 35 36 0
x-1556 10 11 12 21 22 24 29 30 31 37 38 39 0
1553 1554 1555 1556 0
x-1557 1 3 4 5 6 7 10 11 12 13 15 16 0
x-1558 1 3 4 18 19 21 22 24 25 28 0
x-1559 5 6 7 18 19 29 30 31 34 35 0
x-1560 10 11 12 21 22 24 29 30 31 37 38 40 0
1557 1558 1559 1560 0
x-1561 1 3 4 5 6 7 10 11 12 14 15 0
x-1562 1 3 4 18 19 21 22 24 25 26 27 0
x-1563 5 6 7 18 19 29 30 31 33 34 36 0
x-1564 10 11 12 21 22 24 29 30 31 37 39 40 0
1561 1562 1563 1564 0
x-1565 1 3 4 5 6 7 10 11 12 14 15 16 0
x-1566 1 3 4 18 19 21 22 24 25 26 28 0
x-1567 5 6 7 18 19 29 30 31 33 34 35 0
x-1568 10 11 12 21 22 24 29 30 31 37 40 0
1565 1566 1567 1568 0
x-1569 1 3 4 5 6 7 10 11 12 13 14 15 0
x-1570 1 3 4 18 19 21 22 24 26 27 0
x-1571 5 6 7 18 19 29 30 31 33 36 0
x-1572 10 11 12 21 22 24 29 30 31 38 39 40 0
1569 1570 1571 1572 0
x-1573 1 3 4 5 6 7 10 11 12 13 14 16 0
x-1574 1 3 4 18 19 21 22 24 26 27 28 0
x-1575 5 6 7 18 19 29 30 31 33 35 36 0
x-1576 10 11 12 21 22 24 29 30 31 38 39 0
1573 1574 1575 1576 0
x-1577 1 3 4 5 6 7 9 10 11 13 16 0
x-1578 1 3 4 18 19 22 23 25 27 28 0
x-1579 5 6 7 18 19 29 32 34 35 36 0
x-1580 9 10 11 22 23 29 32 38 39 40 0
1577 1578 1579 1580 0
x-1581 1 3 4 5 6 7 9 10 11 13 15 16 0
x-1582 1 3 4 18 19 22 23 25 28 0
x-1583 5 6 7 18 19 29 32 34 35 0
x-1584 9 10 11 22 23 29 32 38 39 0
1581 1582 1583 1584 0
x-1585 1 3 4 5 6 7 9 10 11 14 15 0
x-1586 1 3 4 18 19 22 23 25 26 27 0
x-1587 5 6 7 18 19 29 32 33 34 36 0
x-1588 9 10 11 22 23 29 32 37 38 40 0
1585 1586 1587 1588 0
x-1589 1 3 4 5 6 7 9 10 11 14 15 16 0
x-1590 1 3 4 18 19 22 23 25 26 28 0
x-1591 5 6 7 18 19 29 32 33 34 35 0
x-1592 9 10 11 22 23 29 32 37 38 39 0
1589 1590 1591 1592 0
x-1593 1 3 4 5 6 7 9 10 11 13 14 15 0
x-1594 1 3 4 18 19 22 23 26 27 0
x-1595 5 6 7 18 19 29 32 33 36 0
x-1596 9 10 11 22 23 29 32 37 40 0
1593 1594 1595 1596 0
x-1597 1 3 4 5 6 7 9 10 11 13 14 16 0
x-1598 1 3 4 18 19 22 23 26 27 28 0
x-1599 5 6 7 18 19 29 32 33 35 36 0
x-1600 9 10 11 22 23 29 32 37 39 40 0
1597 1598 1599 1600 0
x-1601 1 3 4 5 6 7 9 10 12 13 16 0
x-1602 1 3 4 18 19 22 23 24 25 27 28 0
x-1603 5 6 7 18 19 29 31 32 34 35 36 0
x-1604 9 10 12 22 23 24 29 31 32 37 38 40 0
1601 1602 1603 1604 0
x-1605 1 3 4 5 6 7 9 10 12 13 15 16 0
x-1606 1 3 4 18 19 22 23 24 25 28 0
x-1607 5 6 7 18 19 29 31 32 34 35 0
x-1608 9 10 12 22 23 24 29 31 32 37 38 39 0
1605 1606 1607 1608 0
x-1609 1 3 4 5 6 7 9 10 12 14 15 0
x-1610 1 3 4 18 19 22 23 24 25 26 27 0
x-1611 5 6 7 18 19 29 31 32 33 34 36 0
x-1612 9 10 12 22 23 24 29 31 32 38 39 40 0
1609 1610 1611 1612 0
x-1613 1 3 4 5 6 7 9 10 12 14 15 16 0
x-1614 1 3 4 18 19 22 23 24 25 26 28 0
x-1615 5 6 7 18 19 29 31 32 33 34 35 0
x-1616 9 10 12 22 23 24 29 31 32 38 39 0
1613 1614 1615 1616 0
x-1617 1 3 4 5 6 7 9 10 12 13 14 15 0
x-1618 1 3 4 18 19 22 23 24 26 27 0
x-1619 5 6 7 18 19 29 31 32 33 36 0
x-1620 9 10 12 22 23 24 29 31 32 37 39 40 0
1617 1618 1619 1620 0
x-1621 1 3 4 5 6 7 9 10 12 13 14 16 0
x-1622 1 3 4 18 19 22 23 24 26 27 28 0
x-1623 5 6 7 18 19 29 31 32 33 35 36 0
x-1624 9 10 12 22 23 24 29 31 32 37 40 0
1621 1622 1623 1624 0
x-1625 1 3 4 5 6 8 9 12 13 16 0
x-1626 1 3 4 18 19 20 21 23 24 25 27 28 0
x-1627 5 6 8 18 19 20 29 30 32 33 34 36 0
x-1628 9 12 21 23 24 29 30 32 37 40 0
1625 1626 1627 1628 0
x-1629 1 3 4 5 6 8 9 12 13 15 16 0
x-1630 1 3 4 18 19 20 21 23 24 25 28 0
x-1631 5 6 8 18 19 20 29 30 32 33 34 35 0
x-1632 9 12 21 23 24 29 30 32 37 39 40 0
1629 1630 1631 1632 0
x-1633 1 3 4 5 6 8 9 12 14 15 0
x-1634 1 3 4 18 19 20 21 23 24 25 26 27 0
x-1635 5 6 8 18 19 20 29 30 32 34 35 36 0
x-1636 9 12 21 23 24 29 30 32 38 39 0
1633 1634 1635 1636 0
x-1637 1 3 4 5 6 8 9 12 14 15 16 0
x-1638 1 3 4 18 19 20 21 23 24 25 26 28 0
x-1639 5 6 8 18 19 20 29 30 32 34 35 0
x-1640 9 12 21 23 24 29 30 32 38 39 40 0
1637 1638 1639 1640 0
x-1641 1 3 4 5 6 8 9 12 13 14 15 0
x-1642 1 3 4 18 19 20 21 23 24 26 27 0
x-1643 5 6 8 18 19 20 29 30 32 33 35 36 0
x-1644 9 12 21 23 24 29 30 32 37 38 39 0
1641 1642 1643 1644 0
x-1645 1 3 4 5 6 8 9 12 13 14 16 0
x-1646 1 3 4 18 19 20 21 23 24 26 27 28 0
x-1647 5 6 8 18 19 20 29 30 32 33 36 0
x-1648 9 12 21 23 24 29 30 32 37 38 40 0
1645 1646 1647 1648 0
x-1649 1 3 4 5 6 8 9 11 12 13 16 0
x-1650 1 3 4 18 19 20 21 24 25 27 28 0
x-1651 5 6 8 18 19 20 29 30 31 33 34 36 0
x-1652 9 11 12 21 24 29 30 31 37 39 40 0
1649 1650 1651 1652 0
x-1653 1 3 4 5 6 8 9 11 12 13 15 16 0
x-1654 1 3 4 18 19 20 21 24 25 28 0
x-1655 5 6 8 18 19 20 29 30 31 33 34 35 0
x-1656 9 11 12 21 24 29 30 31 37 40 0
1653 1654 1655 1656 0
x-1657 1 3 4 5 6 8 9 11 12 14 15 0
x-1658 1 3 4 18 19 20 21 24 25 26 27 0
x-1659 5 6 8 18 19 20 29 30 31 34 35 36 0
x-1660 9 11 12 21 24 29 30 31 37 38 39 0
1657 1658 1659 1660 0
x-1661 1 3 4 5 6 8 9 11 12 14 15 16 0
x-1662 1 3 4 18 19 20 21 24 25 26 28 0
x-1663 5 6 8 18 19 20 29 30 31 34 35 0
x-1664 9 11 12 21 24 29 30 31 37 38 40 0
1661 1662 1663 1664 0
x-1665 1 3 4 5 6 8 9 11 12 13 14 15 0
x-1666 1 3 4 18 19 20 21 24 26 27 0
x-1667 5 6 8 18 19 20 29 30 31 33 35 36 0
x-1668 9 11 12 21 24 29 30 31 38 39 0
1665 1666 1667 1668 0
x-1669 1 3 4 5 6 8 9 11 12 13 14 16 0
x-1670 1 3 4 18 19 20 21 24 26 27 28 0
x-1671 5 6 8 18 19 20 29 30 31 33 36 0
x-1672 9 11 12 21 24 29 30 31 38 39 40 0
1669 1670 1671 1672 0
x-1673 1 3 4 5 6 8 10 11 13 16 0
x-1674 1 3 4 18 19 20 21 22 23 25 27 28 0
x-1675 5 6 8 18 19 20 30 31 32 33 34 36 0
x-1676 10 11 21 22 23 30 31 32 38 39 0
1673 1674 1675 1676 0
x-1677 1 3 4 5 6 8 10 11 13 15 16 0
x-1678 1 3 4 18 19 20 21 22 23 25 28 0
x-1679 5 6 8 18 19 20 30 31 32 33 34 35 0
x-1680 10 11 21 22 23 30 31 32 38 39 40 0
1677 1678 1679 1680 0
x-1681 1 3 4 5 6 8 10 11 14 15 0
x-1682 1 3 4 18 19 20 21 22 23 25 26 27 0
x-1683 5 6 8 18 19 20 30 31 32 34 35 36 0
x-1684 10 11 21 22 23 30 31 32 37 40 0
1681 1682 1683 1684 0
x-1685 1 3 4 5 6 8 10 11 14 15 16 0
x-1686 1 3 4 18 19 20 21 22 23 25 26 28 0
x-1687 5 6 8 18 19 20 30 31 32 34 35 0
x-1688 10 11 21 22 23 30 31 32 37 39 40 0
1685 1686 1687 1688 0
x-1689 1 3 4 5 6 8 10 11 13 14 15 0
x-1690 1 3 4 18 19 20 21 22 23 26 27 0
x-1691 5 6 8 18 19 20 30 31 32 33 35 36 0
x-1692 10 11 21 22 23 30 31 32 37 38 40 0
1689 1690 1691 1692 0
x-1693 1 3 4 5 6 8 10 11 13 14 16 0
x-1694 1 3 4 18 19 20 21 22 23 26 27 28 0
x-1695 5 6 8 18 19 20 30 31 32 33 36 0
x-1696 10 11 21 22 23 30 31 32 37 38 39 0
1693 1694 1695 1696 0
x-1697 1 3 4 5 6 8 10 11 12 13 16 0
x-1698 1 3 4 18 19 20 21 22 24 25 27 28 0
x-1699 5 6 8 18 19 20 30 31 33 34 36 0
x-1700 10 11 12 21 22 24 30 31 37 38 39 0
1697 1698 1699 1700 0
x-1701 1 3 4 5 6 8 10 11 12 13 15 16 0
x-1702 1 3 4 18 19 20 21 22 24 25 28 0
x-1703 5 6 8 18 19 20 30 31 33 34 35 0
x-1704 10 11 12 21 22 24 30 31 37 38 40 0
1701 1702 1703 1704 0
x-1705 1 3 4 5 6 8 10 11 12 14 15 0
x-1706 1 3 4 18 19 20 21 22 24 25 26 27 0
x-1707 5 6 8 18 19 20 30 31 34 35 36 0
x-1708 10 11 12 21 22 24 30 31 37 39 40 0
1705 1706 1707 1708 0
x-1709 1 3 4 5 6 8 10 11 12 14 15 16 0
x-1710 1 3 4 18 19 20 21 22 24 25 26 28 0
x-1711 5 6 8 18 19 20 30 31 34 35 0
x-1712 10 11 12 21 22 24 30 31 37 40 0
1709 1710 1711 1712 0
x-1713 1 3 4 5 6 8 10 11 12 13 14 15 0
x-1714 1 3 4 18 19 20 21 22 24 26 27 0
x-1715 5 6 8 18 19 20 30 31 33 35 36 0
x-1716 10 11 12 21 22 24 30 31 38 39 40 0
1713 1714 1715 1716 0
x-1717 1 3 4 5 6 8 10 11 12 13 14 16 0
x-1718 1 3 4 18 19 20 21 22 24 26 27 28 0
x-1719 5 6 8 18 19 20 30 31 33 36 0
x-1720 10 11 12 21 22 24 30 31 38 39 0
1717 1718 1719 1720 0
x-1721 1 3 4 5 6 8 9 10 11 13 16 0
x-1722 1 3 4 18 19 20 22 23 25 27 28 0
x-1723 5 6 8 18 19 20 29 31 32 33 34 36 0
x-1724 9 10 11 22 23 29 31 32 38 39 40 0
1721 1722 1723 1724 0
x-1725 1 3 4 5 6 8 9 10 11 13 15 16 0
x-1726 1 3 4 18 19 20 22 23 25 28 0
x-1727 5 6 8 18 19 20 29 31 32 33 34 35 0
x-1728 9 10 11 22 23 29 31 32 38 39 0
1725 1726 1727 1728 0
x-1729 1 3 4 5 6 8 9 10 11 14 15 0
x-1730 1 3 4 18 19 20 22 23 25 26 27 0
x-1731 5 6 8 18 19 20 29 31 32 34 35 36 0
x-1732 9 10 11 22 23 29 31 32 37 38 40 0
1729 1730 1731 1732 0
x-1733 1 3 4 5 6 8 9 10 11 14 15 16 0
x-1734 1 3 4 18 19 20 22 23 25 26 28 0
x-1735 5 6 8 18 19 20 29 31 32 34 35 0
x-1736 9 10 11 22 23 29 31 32 37 38 39 0
1733 1734 1735 1736 0
x-1737 1 3 4 5 6 8 9 10 11 13 14 15 0
x-1738 1 3 4 18 19 20 22 23 26 27 0
x-1739 5 6 8 18 19 20 29 31 32 33 35 36 0
x-1740 9 10 11 22 23 29 31 32 37 40 0
1737 1738 1739 1740 0
x-1741 1 3 4 5 6 8 9 10 11 13 14 16 0
x-1742 1 3 4 18 19 20 22 23 26 27 28 0
x-1743 5 6 8 18 19 20 29 31 32 33 36 0
x-1744 9 10 11 22 23 29 31 32 37 39 40 0
1741 1742 1743 1744 0
x-1745 1 3 4 5 6 8 9 10 12 13 16 0
x-1746 1 3 4 18 19 20 22 23 24 25 27 28 0
x-1747 5 6 8 18 19 20 29 32 33 34 36 0
x-1748 9 10 12 22 23 24 29 32 37 38 40 0
1745 1746 1747 1748 0
x-1749 1 3 4 5 6 8 9 10 12 13 15 16 0
x-1750 1 3 4 18 19 20 22 23 24 25 28 0
x-1751 5 6 8 18 19 20 29 32 33 34 35 0
x-1752 9 10 12 22 23 24 29 32 37 38 39 0
1749 1750 1751 1752 0
x-1753 1 3 4 5 6 8 9 10 12 14 15 0
x-1754 1 3 4 18 19 20 22 23 24 25 26 27 0
x-1755 5 6 8 18 19 20 29 32 34 35 36 0
x-1756 9 10 12 22 23 24 29 32 38 39 40 0
1753 1754 1755 1756 0
x-1757 1 3 4 5 6 8 9 10 12 14 15 16 0
x-1758 1 3 4 18 19 20 22 23 24 25 26 28 0
x-1759 5 6 8 18 19 20 29 32 34 35 0
x-1760 9 10 12 22 23 24 29 32 38 39 0
1757 1758 1759 1760 0
x-1761 1 3 4 5 6 8 9 10 12 13 14 15 0
x-1762 1 3 4 18 19 20 22 23 24 26 27 0
x-1763 5 6 8 18 19 20 29 32 33 35 36 0
x-1764 9 10 12 22 23 24 29 32 37 39 40 0
1761 1762 1763 1764 0
x-1765 1 3 4 5 6 8 9 10 12 13 14 16 0
x-1766 1 3 4 18 19 20 22 23 24 26 27 28 0
x-1767 5 6 8 18 19 20 29 32 33 36 0
x-1768 9 10 12 22 23 24 29 32 37 40 0
1765 1766 1767 1768 0
x-1769 2 3 5 8 9 12 13 16 0
x-1770 2 3 18 19 22 23 26 27 0
x-1771 5 8 18 19 29 32 33 36 0
x-1772 9 12 22 23 29 32 37 40 0
1769 1770 1771 1772 0
x-1773 2 3 5 8 9 12 13 15 16 0
x-1774 2 3 18 19 22 23 26 27 28 0
x-1775 5 8 18 19 29 32 33 35 36 0
x-1776 9 12 22 23 29 32 37 39 40 0
1773 1774 1775 1776 0
x-1777 2 3 5 8 9 12 14 15 0
x-1778 2 3 18 19 22 23 25 28 0
x-1779 5 8 18 19 29 32 34 35 0
x-1780 9 12 22 23 29 32 38 39 0
1777 1778 1779 1780 0
x-1781 2 3 5 8 9 12 14 15 16 0
x-1782 2 3 18 19 22 23 25 27 28 0
x-1783 5 8 18 19 29 32 34 35 36 0
x-1784 9 12 22 23 29 32 38 39 40 0
1781 1782 1783 1784 0
x-1785 2 3 5 8 9 12 13 14 15 0
x-1786 2 3 18 19 22 23 25 26 28 0
x-1787 5 8 18 19 29 32 33 34 35 0
x-1788 9 12 22 23 29 32 37 38 39 0
1785 1786 1787 1788 0
x-1789 2 3 5 8 9 12 13 14 16 0
x-1790 2 3 18 19 22 23 25 26 27 0
x-1791 5 8 18 19 29 32 33 34 36 0
x-1792 9 12 22 23 29 32 37 38 40 0
1789 1790 1791 1792 0
x-1793 2 3 5 8 9 11 12 13 16 0
x-1794 2 3 18 19 22 23 24 26 27 0
x-1795 5 8 18 19 29 31 32 33 36 0
x-1796 9 11 12 22 23 24 29 31 32 37 39 40 0
1793 1794 1795 1796 0
x-1797 2 3 5 8 9 11 12 13 15 16 0
x-1798 2 3 18 19 22 23 24 26 27 28 0
x-1799 5 8 18 19 29 31 32 33 35 36 0
x-1800 9 11 12 22 23 24 29 31 32 37 40 0
1797 1798 1799 1800 0
x-1801 2 3 5 8 9 11 12 14 15 0
x-1802 2 3 18 19 22 23 24 25 28 0
x-1803 5 8 18 19 29 31 32 34 35 0
x-1804 9 11 12 22 23 24 29 31 32 37 38 39 0
1801 1802 1803 1804 0
x-1805 2 3 5 8 9 11 12 14 15 16 0
x-1806 2 3 18 19 22 23 24 25 27 28 0
x-1807 5 8 18 19 29 31 32 34 35 36 0
x-1808 9 11 12 22 23 24 29 31 32 37 38 40 0
1805 1806 1807 1808 0
x-1809 2 3 5 8 9 11 12 13 14 15 0
x-1810 2 3 18 19 22 23 24 25 26 28 0
x-1811 5 8 18 19 29 31 32 33 34 35 0
x-1812 9 11 12 22 23 24 29 31 32 38 39 0
1809 1810 1811 1812 0
x-1813 2 3 5 8 9 11 12 13 14 16 0
x-1814 2 3 18 19 22 23 24 25 26 27 0
x-1815 5 8 18 19 29 31 32 33 34 36 0
x-1816 9 11 12 22 23 24 29 31 32 38 39 40 0
1813 1814 1815 1816 0
x-1817 2 3 5 8 10 11 13 16 0
x-1818 2 3 18 19 21 24 26 27 0
x-1819 5 8 18 19 30 31 33 36 0
x-1820 10 11 21 24 30 31 38 39 0
1817 1818 1819 1820 0
x-1821 2 3 5 8 10 11 13 15 16 0
x-1822 2 3 18 19 21 24 26 27 28 0
x-1823 5 8 18 19 30 31 33 35 36 0
x-1824 10 11 21 24 30 31 38 39 40 0
1821 1822 1823 1824 0
x-1825 2 3 5 8 10 11 14 15 0
x-1826 2 3 18 19 21 24 25 28 0
x-1827 5 8 18 19 30 31 34 35 0
x-1828 10 11 21 24 30 31 37 40 0
1825 1826 1827 1828 0
x-1829 2 3 5 8 10 11 14 15 16 0
x-1830 2 3 18 19 21 24 25 27 28 0
x-1831 5 8 18 19 30 31 34 35 36 0
x-1832 10 11 21 24 30 31 37 39 40 0
1829 1830 1831 1832 0
x-1833 2 3 5 8 10 11 13 14 15 0
x-1834 2 3 18 19 21 24 25 26 28 0
x-1835 5 8 18 19 30 31 33 34 35 0
x-1836 10 11 21 24 30 31 37 38 40 0
1833 1834 1835 1836 0
x-1837 2 3 5 8 10 11 13 14 16 0
x-1838 2 3 18 19 21 24 25 26 27 0
x-1839 5 8 18 19 30 31 33 34 36 0
x-1840 10 11 21 24 30 31 37 38 39 0
1837 1838 1839 1840 0
x-1841 2 3 5 8 10 11 12 13 16 0
x-1842 2 3 18 19 21 23 24 26 27 0
x-1843 5 8 18 19 30 31 32 33 36 0
x-1844 10 11 12 21 23 24 30 31 32 37 38 39 0
1841 1842 1843 1844 0
x-1845 2 3 5 8 10 11 12 13 15 16 0
x-1846 2 3 18 19 21 23 24 26 27 28 0
x-1847 5 8 18 19 30 31 32 33 35 36 0
x-1848 10 11 12 21 23 24 30 31 32 37 38 40 0
1845 1846 1847 1848 0
x-1849 2 3 5 8 10 11 12 14 15 0
x-1850 2 3 18 19 21 23 24 25 28 0
x-1851 5 8 18 19 30 31 32 34 35 0
x-1852 10 11 12 21 23 24 30 31 32 37 39 40 0
1849 1850 1851 1852 0
x-1853 2 3 5 8 10 11 12 14 15 16 0
x-1854 2 3 18 19 21 23 24 25 27 28 0
x-1855 5 8 18 19 30 31 32 34 35 36 0
x-1856 10 11 12 21 23 24 30 31 32 37 40 0
1853 1854 1855 1856 0
x-1857 2 3 5 8 10 11 12 13 14 15 0
x-1858 2 3 18 19 21 23 24 25 26 28 0
x-1859 5 8 18 19 30 31 32 33 34 35 0
x-1860 10 11 12 21 23 24 30 31 32 38 39 40 0
1857 1858 1859 1860 0
x-1861 2 3 5 8 10 11 12 13 14 16 0
x-1862 2 3 18 19 21 23 24 25 26 27 0
x-1863 5 8 18 19 30 31 32 33 34 36 0
x-1864 10 11 12 21 23 24 30 31 32 38 39 0
1861 1862 1863 1864 0
x-1865 2 3 5 8 9 10 11 13 16 0
x-1866 2 3 18 19 21 22 24 26 27 0
x-1867 5 8 18 19 29 30 31 33 36 0
x-1868 9 10 11 21 22 24 29 30 31 38 39 40 0
1865 1866 1867 1868 0
x-1869 2 3 5 8 9 10 11 13 15 16 0
x-1870 2 3 18 19 21 22 24 26 27 28 0
x-1871 5 8 18 19 29 30 31 33 35 36 0
x-1872 9 10 11 21 22 24 29 30 31 38 39 0
1869 1870 1871 1872 0
x-1873 2 3 5 8 9 10 11 14 15 0
x-1874 2 3 18 19 21 22 24 25 28 0
x-1875 5 8 18 19 29 30 31 34 35 0
x-1876 9 10 11 21 22 24 29 30 31 37 38 40 0
1873 1874 1875 1876 0
x-1877 2 3 5 8 9 10 11 14 15 16 0
x-1878 2 3 18 19 21 22 24 25 27 28 0
x-1879 5 8 18 19 29 30 31 34 35 36 0
x-1880 9 10 11 21 22 24 29 30 31 37 38 39 0
1877 1878 1879 1880 0
x-1881 2 3 5 8 9 10 11 13 14 15 0
x-1882 2 3 18 19 21 22 24 25 26 28 0
x-1883 5 8 18 19 29 30 31 33 34 35 0
x-1884 9 10 11 21 22 24 29 30 31 37 40 0
1881 1882 1883 1884 0
x-1885 2 3 5 8 9 10 11 13 14 16 0
x-1886 2 3 18 19 21 22 24 25 26 27 0
x-1887 5 8 18 19 29 30 31 33 34 36 0
x-1888 9 10 11 21 22 24 29 30 31 37 39 40 0
1885 1886 1887 1888 0
x-1889 2 3 5 8 9 10 12 13 16 0
x-1890 2 3 18 19 21 22 23 26 27 0
x-1891 5 8 18 19 29 30 32 33 36 0
x-1892 9 10 12 21 22 23 29 30 32 37 38 40 0
1889 1890 1891 1892 0
x-1893 2 3 5 8 9 10 12 13 15 16 0
x-1894 2 3 18 19 21 22 23 26 27 28 0
x-1895 5 8 18 19 29 30 32 33 35 36 0
x-1896 9 10 12 21 22 23 29 30 32 37 38 39 0
1893 1894 1895 1896 0
x-1897 2 3 5 8 9 10 12 14 15 0
x-1898 2 3 18 19 21 22 23 25 28 0
x-1899 5 8 18 19 29 30 32 34 35 0
x-1900 9 10 12 21 22 23 29 30 32 38 39 40 0
1897 1898 1899 1900 0
x-1901 2 3 5 8 9 10 12 14 15 16 0
x-1902 2 3 18 19 21 22 23 25 27 28 0
x-1903 5 8 18 19 29 30 32 34 35 36 0
x-1904 9 10 12 21 22 23 29 30 32 38 39 0
1901 1902 1903 1904 0
x-1905 2 3 5 8 9 10 12 13 14 15 0
x-1906 2 3 18 19 21 22 23 25 26 28 0
x-1907 5 8 18 19 29 30 32 33 34 35 0
x-1908 9 10 12 21 22 23 29 30 32 37 39 40 0
1905 1906 1907 1908 0
x-1909 2 3 5 8 9 10 12 13 14 16 0
x-1910 2 3 18 19 21 22 23 25 26 27 0
x-1911 5 8 18 19 29 30 32 33 34 36 0
x-1912 9 10 12 21 22 23 29 30 32 37 40 0
1909 1910 1911 1912 0
x-1913 2 3 5 7 8 9 12 13 16 0
x-1914 2 3 18 19 20 22 23 26 27 0
x-1915 5 7 8 18 19 20 29 31 32 33 35 36 0
x-1916 9 12 22 23 29 31 32 37 40 0
1913 1914 1915 1916 0
x-1917 2 3 5 7 8 9 12 13 15 16 0
x-1918 2 3 18 19 20 22 23 26 27 28 0
x-1919 5 7 8 18 19 20 29 31 32 33 36 0
x-1920 9 12 22 23 29 31 32 37 39 40 0
1917 1918 1919 1920 0
x-1921 2 3 5 7 8 9 12 14 15 0
x-1922 2 3 18 19 20 22 23 25 28 0
x-1923 5 7 8 18 19 20 29 31 32 33 34 35 0
x-1924 9 12 22 23 29 31 32 38 39 0
1921 1922 1923 1924 0
x-1925 2 3 5 7 8 9 12 14 15 16 0
x-1926 2 3 18 19 20 22 23 25 27 28 0
x-1927 5 7 8 18 19 20 29 31 32 33 34 36 0
x-1928 9 12 22 23 29 31 32 38 39 40 0
1925 1926 1927 1928 0
x-1929 2 3 5 7 8 9 12 13 14 15 0
x-1930 2 3 18 19 20 22 23 25 26 28 0
x-1931 5 7 8 18 19 20 29 31 32 34 35 0
x-1932 9 12 22 23 29 31 32 37 38 39 0
1929 1930 1931 1932 0
x-1933 2 3 5 7 8 9 12 13 14 16 0
x-1934 2 3 18 19 20 22 23 25 26 27 0
x-1935 5 7 8 18 19 20 29 31 32 34 35 36 0
x-1936 9 12 22 23 29 31 32 37 38 40 0
1933 1934 1935 1936 0
x-1937 2 3 5 7 8 9 11 12 13 16 0
x-1938 2 3 18 19 20 22 23 24 26 27 0
x-1939 5 7 8 18 19 20 29 32 33 35 36 0
x-1940 9 11 12 22 23 24 29 32 37 39 40 0
1937 1938 1939 1940 0
x-1941 2 3 5 7 8 9 11 12 13 15 16 0
x-1942 2 3 18 19 20 22 23 24 26 27 28 0
x-1943 5 7 8 18 19 20 29 32 33 36 0
x-1944 9 11 12 22 23 24 29 32 37 40 0
1941 1942 1943 1944 0
x-1945 2 3 5 7 8 9 11 12 14 15 0
x-1946 2 3 18 19 20 22 23 24 25 28 0
x-1947 5 7 8 18 19 20 29 32 33 34 35 0
x-1948 9 11 12 22 23 24 29 32 37 38 39 0
1945 1946 1947 1948 0
x-1949 2 3 5 7 8 9 11 12 14 15 16 0
x-1950 2 3 18 19 20 22 23 24 25 27 28 0
x-1951 5 7 8 18 19 20 29 32 33 34 36 0
x-1952 9 11 12 22 23 24 29 32 37 38 40 0
1949 1950 1951 1952 0
x-1953 2 3 5 7 8 9 11 12 13 14 15 0
x-1954 2 3 18 19 20 22 23 24 25 26 28 0
x-1955 5 7 8 18 19 20 29 32 34 35 0
x-1956 9 11 12 22 23 24 29 32 38 39 0
1953 1954 1955 1956 0
x-1957 2 3 5 7 8 9 11 12 13 14 16 0
x-1958 2 3 18 19 20 22 23 24 25 26 27 0
x-1959 5 7 8 18 19 20 29 32 34 35 36 0
x-1960 9 11 12 22 23 24 29 32 38 39 40 0
1957 1958 1959 1960 0
x-1961 2 3 5 7 8 10 11 13 16 0
x-1962 2 3 18 19 20 21 24 26 27 0
x-1963 5 7 8 18 19 20 29 30 31 33 35 36 0
x-1964 10 11 21 24 29 30 31 38 39 0
1961 1962 1963 1964 0
x-1965 2 3 5 7 8 10 11 13 15 16 0
x-1966 2 3 18 19 20 21 24 26 27 28 0
x-1967 5 7 8 18 19 20 29 30 31 33 36 0
x-1968 10 11 21 24 29 30 31 38 39 40 0
1965 1966 1967 1968 0
x-1969 2 3 5 7 8 10 11 14 15 0
x-1970 2 3 18 19 20 21 24 25 28 0
x-1971 5 7 8 18 19 20 29 30 31 33 34 35 0
x-1972 10 11 21 24 29 30 31 37 40 0
1969 1970 1971 1972 0
x-1973 2 3 5 7 8 10 11 14 15 16 0
x-1974 2 3 18 19 20 21 24 25 27 28 0
x-1975 5 7 8 18 19 20 29 30 31 33 34 36 0
x-1976 10 11 21 24 29 30 31 37 39 40 0
1973 1974 1975 1976 0
x-1977 2 3 5 7 8 10 11 13 14 15 0
x-1978 2 3 18 19 20 21 24 25 26 28 0
x-1979 5 7 8 18 19 20 29 30 31 34 35 0
x-1980 10 11 21 24 29 30 31 37 38 40 0
1977 1978 1979 1980 0
x-1981 2 3 5 7 8 10 11 13 14 16 0
x-1982 2 3 18 19 20 21 24 25 26 27 0
x-1983 5 7 8 18 19 20 29 30 31 34 35 36 0
x-1984 10 11 21 24 29 30 31 37 38 39 0
1981 1982 1983 1984 0
x-1985 2 3 5 7 8 10 11 12 13 16 0
x-1986 2 3 18 19 20 21 23 24 26 27 0
x-1987 5 7 8 18 19 20 29 30 32 33 35 36 0
x-1988 10 11 12 21 23 24 29 30 32 37 38 39 0
1985 1986 1987 1988 0
x-1989 2 3 5 7 8 10 11 12 13 15 16 0
x-1990 2 3 18 19 20 21 23 24 26 27 28 0
x-1991 5 7 8 18 19 20 29 30 32 33 36 0
x-1992 10 11 12 21 23 24 29 30 32 37 38 40 0
1989 1990 1991 1992 0
x-1993 2 3 5 7 8 10 11 12 14 15 0
x-1994 2 3 18 19 20 21 23 24 25 28 0
x-1995 5 7 8 18 19 20 29 30 32 33 34 35 0
x-1996 10 11 12 21 23 24 29 30 32 37 39 40 0
1993 1994 1995 1996 0
x-1997 2 3 5 7 8 10 11 12 14 15 16 0
x-1998 2 3 18 19 20 21 23 24 25 27 28 0
x-1999 5 7 8 18 19 20 29 30 32 33 34 36 0
x-2000 10 11 12 21 23 24 29 30 32 37 40 0
1997 1998 1999 2000 0
x-2001 2 3 5 7 8 10 11 12 13 14 15 0
x-2002 2 3 18 19 20 21 23 24 25 26 28 0
x-2003 5 7 8 18 19 20 29 30 32 34 35 0
x-2004 10 11 12 21 23 24 29 30 32 38 39 40 0
2001 2002 2003 2004 0
x-2005 2 3 5 7 8 10 11 12 13 14 16 0
x-2006 2 3 18 19 20 21 23 24 25 26 27 0
x-2007 5 7 8 18 19 20 29 30 32 34 35 36 0
x-2008 10 11 12 21 23 24 29 30 32 38 39 0
2005 2006 2007 2008 0
x-2009 2 3 5 7 8 9 10 11 13 16 0
x-2010 2 3 18 19 20 21 22 24 26 27 0
x-2011 5 7 8 18 19 20 30 31 33 35 36 0
x-2012 9 10 11 21 22 24 30 31 38 39 40 0
2009 2010 2011 2012 0
x-2013 2 3 5 7 8 9 10 11 13 15 16 0
x-2014 2 3 18 19 20 21 22 24 26 27 28 0
x-2015 5 7 8 18 19 20 30 31 33 36 0
x-2016 9 10 11 21 22 24 30 31 38 39 0
2013 2014 2015 2016 0
x-2017 2 3 5 7 8 9 10 11 14 15 0
x-2018 2 3 18 19 20 21 22 24 25 28 0
x-2019 5 7 8 18 19 20 30 31 33 34 35 0
x-2020 9 10 11 21 22 24 30 31 37 38 40 0
2017 2018 2019 2020 0
x-2021 2 3 5 7 8 9 10 11 14 15 16 0
x-2022 2 3 18 19 20 21 22 24 25 27 28 0
x-2023 5 7 8 18 19 20 30 31 33 34 36 0
x-2024 9 10 11 21 22 24 30 31 37 38 39 0
2021 2022 2023 2024 0
x-2025 2 3 5 7 8 9 10 11 13 14 15 0
x-2026 2 3 18 19 20 21 22 24 25 26 28 0
x-2027 5 7 8 18 19 20 30 31 34 35 0
x-2028 9 10 11 21 22 24 30 31 37 40 0
2025 2026 2027 2028 0
x-2029 2 3 5 7 8 9 10 11 13 14 16 0
x-2030 2 3 18 19 20 21 22 24 25 26 27 0
x-2031 5 7 8 18 19 20 30 31 34 35 36 0
x-2032 9 10 11 21 22 24 30 31 37 39 40 0
2029 2030 2031 2032 0
x-2033 2 3 5 7 8 9 10 12 13 16 0
x-2034 2 3 18 19 20 21 22 23 26 27 0
x-2035 5 7 8 18 19 20 30 31 32 33 35 36 0
x-2036 9 10 12 21 22 23 30 31 32 37 38 40 0
2033 2034 2035 2036 0
x-2037 2 3 5 7 8 9 10 12 13 15 16 0
x-2038 2 3 18 19 20 21 22 23 26 27 28 0
x-2039 5 7 8 18 19 20 30 31 32 33 36 0
x-2040 9 10 12 21 22 23 30 31 32 37 38 39 0
2037 2038 2039 2040 0
x-2041 2 3 5 7 8 9 10 12 14 15 0
x-2042 2 3 18 19 20 21 22 23 25 28 0
x-2043 5 7 8 18 19 20 30 31 32 33 34 35 0
x-2044 9 10 12 21 22 23 30 31 32 38 39 40 0
2041 2042 2043 2044 0
x-2045 2 3 5 7 8 9 10 12 14 15 16 0
x-2046 2 3 18 19 20 21 22 23 25 27 28 0
x-2047 5 7 8 18 19 20 30 31 32 33 34 36 0
x-2048 9 10 12 21 22 23 30 31 32 38 39 0
2045 2046 2047 2048 0
x-2049 2 3 5 7 8 9 10 12 13 14 15 0
x-2050 2 3 18 19 20 21 22 23 25 26 28 0
x-2051 5 7 8 18 19 20 30 31 32 34 35 0
x-2052 9 10 12 21 22 23 30 31 32 37 39 40 0
2049 2050 2051 2052 0
x-2053 2 3 5 7 8 9 10 12 13 14 16 0
x-2054 2 3 18 19 20 21 22 23 25 26 27 0
x-2055 5 7 8 18 19 20 30 31 32 34 35 36 0
x-2056 9 10 12 21 22 23 30 31 32 37 40 0
2053 2054 2055 2056 0
x-2057 2 3 6 7 9 12 13 16 0
x-2058 2 3 17 20 22 23 26 27 0
x-2059 6 7 17 20 30 31 34 35 0
x-2060 9 12 22 23 30 31 37 40 0
2057 2058 2059 2060 0
x-2061 2 3 6 7 9 12 13 15 16 0
x-2062 2 3 17 20 22 23 26 27 28 0
x-2063 6 7 17 20 30 31 34 35 36 0
x-2064 9 12 22 23 30 31 37 39 40 0
2061 2062 2063 2064 0
x-2065 2 3 6 7 9 12 14 15 0
x-2066 2 3 17 20 22 23 25 28 0
x-2067 6 7 17 20 30 31 33 36 0
x-2068 9 12 22 23 30 31 38 39 0
2065 2066 2067 2068 0
x-2069 2 3 6 7 9 12 14 15 16 0
x-2070 2 3 17 20 22 23 25 27 28 0
x-2071 6 7 17 20 30 31 33 35 36 0
x-2072 9 12 22 23 30 31 38 39 40 0
2069 2070 2071 2072 0
x-2073 2 3 6 7 9 12 13 14 15 0
x-2074 2 3 17 20 22 23 25 26 28 0
x-2075 6 7 17 20 30 31 33 34 36 0
x-2076 9 12 22 23 30 31 37 38 39 0
2073 2074 2075 2076 0
x-2077 2 3 6 7 9 12 13 14 16 0
x-2078 2 3 17 20 22 23 25 26 27 0
x-2079 6 7 17 20 30 31 33 34 35 0
x-2080 9 12 22 23 30 31 37 38 40 0
2077 2078 2079 2080 0
x-2081 2 3 6 7 9 11 12 13 16 0
x-2082 2 3 17 20 22 23 24 26 27 0
x-2083 6 7 17 20 30 31 32 34 35 0
x-2084 9 11 12 22 23 24 30 31 32 37 39 40 0
2081 2082 2083 2084 0
x-2085 2 3 6 7 9 11 12 13 15 16 0
x-2086 2 3 17 20 22 23 24 26 27 28 0
x-2087 6 7 17 20 30 31 32 34 35 36 0
x-2088 9 11 12 22 23 24 30 31 32 37 40 0
2085 2086 2087 2088 0
x-2089 2 3 6 7 9 11 12 14 15 0
x-2090 2 3 17 20 22 23 24 25 28 0
x-2091 6 7 17 20 30 31 32 33 36 0
x-2092 9 11 12 22 23 24 30 31 32 37 38 39 0
2089 2090 2091 2092 0
x-2093 2 3 6 7 9 11 12 14 15 16 0
x-2094 2 3 17 20 22 23 24 25 27 28 0
x-2095 6 7 17 20 30 31 32 33 35 36 0
x-2096 9 11 12 22 23 24 30 31 32 37 38 40 0
2093 2094 2095 2096 0
x-2097 2 3 6 7 9 11 12 13 14 15 0
x-2098 2 3 17 20 22 23 24 25 26 28 0
x-2099 6 7 17 20 30 31 32 33 34 36 0
x-2100 9 11 12 22 23 24 30 31 32 38 39 0
2097 2098 2099 2100 0
x-2101 2 3 6 7 9 11 12 13 14 16 0
x-2102 2 3 17 20 22 23 24 25 26 27 0
x-2103 6 7 17 20 30 31 32 33 34 35 0
x-2104 9 11 12 22 23 24 30 31 32 38 39 40 0
2101 2102 2103 2104 0
x-2105 2 3 6 7 10 11 13 16 0
x-2106 2 3 17 20 21 24 26 27 0
x-2107 6 7 17 20 29 32 34 35 0
x-2108 10 11 21 24 29 32 38 39 0
2105 2106 2107 2108 0
x-2109 2 3 6 7 10 11 13 15 16 0
x-2110 2 3 17 20 21 24 26 27 28 0
x-2111 6 7 17 20 29 32 34 35 36 0
x-2112 10 11 21 24 29 32 38 39 40 0
2109 2110 2111 2112 0
x-2113 2 3 6 7 10 11 14 15 0
x-2114 2 3 17 20 21 24 25 28 0
x-2115 6 7 17 20 29 32 33 36 0
x-2116 10 11 21 24 29 32 37 40 0
2113 2114 2115 2116 0
x-2117 2 3 6 7 10 11 14 15 16 0
x-2118 2 3 17 20 21 24 25 27 28 0
x-2119 6 7 17 20 29 32 33 35 36 0
x-2120 10 11 21 24 29 32 37 39 40 0
2117 2118 2119 2120 0
x-2121 2 3 6 7 10 11 13 14 15 0
x-2122 2 3 17 20 21 24 25 26 28 0
x-2123 6 7 17 20 29 32 33 34 36 0
x-2124 10 11 21 24 29 32 37 38 40 0
2121 2122 2123 2124 0
x-2125 2 3 6 7 10 11 13 14 16 0
x-2126 2 3 17 20 21 24 25 26 27 0
x-2127 6 7 17 20 29 32 33 34 35 0
x-2128 10 11 21 24 29 32 37 38 39 0
2125 2126 2127 2128 0
x-2129 2 3 6 7 10 11 12 13 16 0
x-2130 2 3 17 20 21 23 24 26 27 0
x-2131 6 7 17 20 29 31 32 34 35 0
x-2132 10 11 12 21 23 24 29 31 32 37 38 39 0
2129 2130 2131 2132 0
x-2133 2 3 6 7 10 11 12 13 15 16 0
x-2134 2 3 17 20 21 23 24 26 27 28 0
x-2135 6 7 17 20 29 31 32 34 35 36 0
x-2136 10 11 12 21 23 24 29 31 32 37 38 40 0
2133 2134 2135 2136 0
x-2137 2 3 6 7 10 11 12 14 15 0
x-2138 2 3 17 20 21 23 24 25 28 0
x-2139 6 7 17 20 29 31 32 33 36 0
x-2140 10 11 12 21 23 24 29 31 32 37 39 40 0
2137 2138 2139 2140 0
x-2141 2 3 6 7 10 11 12 14 15 16 0
x-2142 2 3 17 20 21 23 24 25 27 28 0
x-2143 6 7 17 20 29 31 32 33 35 36 0
x-2144 10 11 12 21 23 24 29 31 32 37 40 0
2141 2142 2143 2144 0
x-2145 2 3 6 7 10 11 12 13 14 15 0
x-2146 2 3 17 20 21 23 24 25 26 28 0
x-2147 6 7 17 20 29 31 32 33 34 36 0
x-2148 10 11 12 21 23 24 29 31 32 38 39 40 0
2145 2146 2147 2148 0
x-2149 2 3 6 7 10 11 12 13 14 16 0
x-2150 2 3 17 20 21 23 24 25 26 27 0
x-2151 6 7 17 20 29 31 32 33 34 35 0
x-2152 10 11 12 21 23 24 29 31 32 38 39 0
2149 2150 2151 2152 0
x-2153 2 3 6 7 9 10 11 13 16 0
x-2154 2 3 17 20 21 22 24 26 27 0
x-2155 6 7 17 20 29 30 32 34 35 0
x-2156 9 10 11 21 22 24 29 30 32 38 39 40 0
2153 2154 2155 2156 0
x-2157 2 3 6 7 9 10 11 13 15 16 0
x-2158 2 3 17 20 21 22 24 26 27 28 0
x-2159 6 7 17 20 29 30 32 34 35 36 0
x-2160 9 10 11 21 22 24 29 30 32 38 39 0
2157 2158 2159 2160 0
x-2161 2 3 6 7 9 10 11 14 15 0
x-2162 2 3 17 20 21 22 24 25 28 0
x-2163 6 7 17 20 29 30 32 33 36 0
x-2164 9 10 11 21 22 24 29 30 32 37 38 40 0
2161 2162 2163 2164 0
x-2165 2 3 6 7 9 10 11 14 15 16 0
x-2166 2 3 17 20 21 22 24 25 27 28 0
x-2167 6 7 17 20 29 30 32 33 35 36 0
x-2168 9 10 11 21 22 24 29 30 32 37 38 39 0
2165 2166 2167 2168 0
x-2169 2 3 6 7 9 10 11 13 14 15 0
x-2170 2 3 17 20 21 22 24 25 26 28 0
x-2171 6 7 17 20 29 30 32 33 34 36 0
x-2172 9 10 11 21 22 24 29 30 32 37 40 0
2169 2170 2171 2172 0
x-2173 2 3 6 7 9 10 11 13 14 16 0
x-2174 2 3 17 20 21 22 24 25 26 27 0
x-2175 6 7 17 20 29 30 32 33 34 35 0
x-2176 9 10 11 21 22 24 29 30 32 37 39 40 0
2173 2174 2175 2176 0
x-2177 2 3 6 7 9 10 12 13 16 0
x-2178 2 3 17 20 21 22 23 26 27 0
x-2179 6 7 17 20 29 30 31 34 35 0
x-2180 9 10 12 21 22 23 29 30 31 37 38 40 0
2177 2178 2179 2180 0
x-2181 2 3 6 7 9 10 12 13 15 16 0
x-2182 2 3 17 20 21 22 23 26 27 28 0
x-2183 6 7 17 20 29 30 31 34 35 36 0
x-2184 9 10 12 21 22 23 29 30 31 37 38 39 0
2181 2182 2183 2184 0
x-2185 2 3 6 7 9 10 12 14 15 0
x-2186 2 3 17 20 21 22 23 25 28 0
x-2187 6 7 17 20 29 30 31 33 36 0
x-2188 9 10 12 21 22 23 29 30 31 38 39 40 0
2185 2186 2187 2188 0
x-2189 2 3 6 7 9 10 12 14 15 16 0
x-2190 2 3 17 20 21 22 23 25 27 28 0
x-2191 6 7 17 20 29 30 31 33 35 36 0
x-2192 9 10 12 21 22 23 29 30 31 38 39 0
2189 2190 2191 2192 0
x-2193 2 3 6 7 9 10 12 13 14 15 0
x-2194 2 3 17 20 21 22 23 25 26 28 0
x-2195 6 7 17 20 29 30 31 33 34 36 0
x-2196 9 10 12 21 22 23 29 30 31 37 39 40 0
2193 2194 2195 2196 0
x-2197 2 3 6 7 9 10 12 13 14 16 0
x-2198 2 3 17 20 21 22 23 25 26 27 0
x-2199 6 7 17 20 29 30 31 33 34 35 0
x-2200 9 10 12 21 22 23 29 30 31 37 40 0
2197 2198 2199 2200 0
x-2201 2 3 6 7 8 9 12 13 16 0
x-2202 2 3 17 19 20 22 23 26 27 0
x-2203 6 7 8 17 19 20 29 30 31 33 34 35 0
x-2204 9 12 22 23 29 30 31 37 40 0
2201 2202 2203 2204 0
x-2205 2 3 6 7 8 9 12 13 15 16 0
x-2206 2 3 17 19 20 22 23 26 27 28 0
x-2207 6 7 8 17 19 20 29 30 31 33 34 36 0
x-2208 9 12 22 23 29 30 31 37 39 40 0
2205 2206 2207 2208 0
x-2209 2 3 6 7 8 9 12 14 15 0
x-2210 2 3 17 19 20 22 23 25 28 0
x-2211 6 7 8 17 19 20 29 30 31 33 35 36 0
x-2212 9 12 22 23 29 30 31 38 39 0
2209 2210 2211 2212 0
x-2213 2 3 6 7 8 9 12 14 15 16 0
x-2214 2 3 17 19 20 22 23 25 27 28 0
x-2215 6 7 8 17 19 20 29 30 31 33 36 0
x-2216 9 12 22 23 29 30 31 38 39 40 0
2213 2214 2215 2216 0
x-2217 2 3 6 7 8 9 12 13 14 15 0
x-2218 2 3 17 19 20 22 23 25 26 28 0
x-2219 6 7 8 17 19 20 29 30 31 34 35 36 0
x-2220 9 12 22 23 29 30 31 37 38 39 0
2217 2218 2219 2220 0
x-2221 2 3 6 7 8 9 12 13 14 16 0
x-2222 2 3 17 19 20 22 23 25 26 27 0
x-2223 6 7 8 17 19 20 29 30 31 34 35 0
x-2224 9 12 22 23 29 30 31 37 38 40 0
2221 2222 2223 2224 0
x-2225 2 3 6 7 8 9 11 12 13 16 0
x-2226 2 3 17 19 20 22 23 24 26 27 0
x-2227 6 7 8 17 19 20 29 30 32 33 34 35 0
x-2228 9 11 12 22 23 24 29 30 32 37 39 40 0
2225 2226 2227 2228 0
x-2229 2 3 6 7 8 9 11 12 13 15 16 0
x-2230 2 3 17 19 20 22 23 24 26 27 28 0
x-2231 6 7 8 17 19 20 29 30 32 33 34 36 0
x-2232 9 11 12 22 23 24 29 30 32 37 40 0
2229 2230 2231 2232 0
x-2233 2 3 6 7 8 9 11 12 14 15 0
x-2234 2 3 17 19 20 22 23 24 25 28 0
x-2235 6 7 8 17 19 20 29 30 32 33 35 36 0
x-2236 9 11 12 22 23 24 29 30 32 37 38 39 0
2233 2234 2235 2236 0
x-2237 2 3 6 7 8 9 11 12 14 15 16 0
x-2238 2 3 17 19 20 22 23 24 25 27 28 0
x-2239 6 7 8 17 19 20 29 30 32 33 36 0
x-2240 9 11 12 22 23 24 29 30 32 37 38 40 0
2237 2238 2239 2240 0
x-2241 2 3 6 7 8 9 11 12 13 14 15 0
x-2242 2 3 17 19 20 22 23 24 25 26 28 0
x-2243 6 7 8 17 19 20 29 30 32 34 35 36 0
x-2244 9 11 12 22 23 24 29 30 32 38 39 0
2241 2242 2243 2244 0
x-2245 2 3 6 7 8 9 11 12 13 14 16 0
x-2246 2 3 17 19 20 22 23 24 25 26 27 0
x-2247 6 7 8 17 19 20 29 30 32 34 35 0
x-2248 9 11 12 22 23 24 29 30 32 38 39 40 0
2245 2246 2247 2248 0
x-2249 2 3 6 7 8 10 11 13 16 0
x-2250 2 3 17 19 20 21 24 26 27 0
x-2251 6 7 8 17 19 20 29 31 32 33 34 35 0
x-2252 10 11 21 24 29 31 32 38 39 0
2249 2250 2251 2252 0
x-2253 2 3 6 7 8 10 11 13 15 16 0
x-2254 2 3 17 19 20 21 24 26 27 28 0
x-2255 6 7 8 17 19 20 29 31 32 33 34 36 0
x-2256 10 11 21 24 29 31 32 38 39 40 0
2253 2254 2255 2256 0
x-2257 2 3 6 7 8 10 11 14 15 0
x-2258 2 3 17 19 20 21 24 25 28 0
x-2259 6 7 8 17 19 20 29 31 32 33 35 36 0
x-2260 10 11 21 24 29 31 32 37 40 0
2257 2258 2259 2260 0
x-2261 2 3 6 7 8 10 11 14 15 16 0
x-2262 2 3 17 19 20 21 24 25 27 28 0
x-2263 6 7 8 17 19 20 29 31 32 33 36 0
x-2264 10 11 21 24 29 31 32 37 39 40 0
2261 2262 2263 2264 0
x-2265 2 3 6 7 8 10 11 13 14 15 0
x-2266 2 3 17 19 20 21 24 25 26 28 0
x-2267 6 7 8 17 19 20 29 31 32 34 35 36 0
x-2268 10 11 21 24 29 31 32 37 38 40 0
2265 2266 2267 2268 0
x-2269 2 3 6 7 8 10 11 13 14 16 0
x-2270 2 3 17 19 20 21 24 25 26 27 0
x-2271 6 7 8 17 19 20 29 31 32 34 35 0
x-2272 10 11 21 24 29 31 32 37 38 39 0
2269 2270 2271 2272 0
x-2273 2 3 6 7 8 10 11 12 13 16 0
x-2274 2 3 17 19 20 21 23 24 26 27 0
x-2275 6 7 8 17 19 20 29 32 33 34 35 0
x-2276 10 11 12 21 23 24 29 32 37 38 39 0
2273 2274 2275 2276 0
x-2277 2 3 6 7 8 10 11 12 13 15 16 0
x-2278 2 3 17 19 20 21 23 24 26 27 28 0
x-2279 6 7 8 17 19 20 29 32 33 34 36 0
x-2280 10 11 12 21 23 24 29 32 37 38 40 0
2277 2278 2279 2280 0
x-2281 2 3 6 7 8 10 11 12 14 15 0
x-2282 2 3 17 19 20 21 23 24 25 28 0
x-2283 6 7 8 17 19 20 29 32 33 35 36 0
x-2284 10 11 12 21 23 24 29 32 37 39 40 0
2281 2282 2283 2284 0
x-2285 2 3 6 7 8 10 11 12 14 15 16 0
x-2286 2 3 17 19 20 21 23 24 25 27 28 0
x-2287 6 7 8 17 19 20 29 32 33 36 0
x-2288 10 11 12 21 23 24 29 32 37 40 0
2285 2286 2287 2288 0
x-2289 2 3 6 7 8 10 11 12 13 14 15 0
x-2290 2 3 17 19 20 21 23 24 25 26 28 0
x-2291 6 7 8 17 19 20 29 32 34 35 36 0
x-2292 10 11 12 21 23 24 29 32 38 39 40 0
2289 2290 2291 2292 0
x-2293 2 3 6 7 8 10 11 12 13 14 16 0
x-2294 2 3 17 19 20 21 23 24 25 26 27 0
x-2295 6 7 8 17 19 20 29 32 34 35 0
x-2296 10 11 12 21 23 24 29 32 38 39 0
2293 2294 2295 2296 0
x-2297 2 3 6 7 8 9 10 11 13 16 0
x-2298 2 3 17 19 20 21 22 24 26 27 0
x-2299 6 7 8 17 19 20 30 31 32 33 34 35 0
x-2300 9 10 11 21 22 24 30 31 32 38 39 40 0
2297 2298 2299 2300 0
x-2301 2 3 6 7 8 9 10 11 13 15 16 0
x-2302 2 3 17 19 20 21 22 24 26 27 28 0
x-2303 6 7 8 17 19 20 30 31 32 33 34 36 0
x-2304 9 10 11 21 22 24 30 31 32 38 39 0
2301 2302 2303 2304 0
x-2305 2 3 6 7 8 9 10 11 14 15 0
x-2306 2 3 17 19 20 21 22 24 25 28 0
x-2307 6 7 8 17 19 20 30 31 32 33 35 36 0
x-2308 9 10 11 21 22 24 30 31 32 37 38 40 0
2305 2306 2307 2308 0
x-2309 2 3 6 7 8 9 10 11 14 15 16 0
x-2310 2 3 17 19 20 21 22 24 25 27 28 0
x-2311 6 7 8 17 19 20 30 31 32 33 36 0
x-2312 9 10 11 21 22 24 30 31 32 37 38 39 0
2309 2310 2311 2312 0
x-2313 2 3 6 7 8 9 10 11 13 14 15 0
x-2314 2 3 17 19 20 21 22 24 25 26 28 0
x-2315 6 7 8 17 19 20 30 31 32 34 35 36 0
x-2316 9 10 11 21 22 24 30 31 32 37 40 0
2313 2314 2315 2316 0
x-2317 2 3 6 7 8 9 10 11 13 14 16 0
x-2318 2 3 17 19 20 21 22 24 25 26 27 0
x-2319 6 7 8 17 19 20 30 31 32 34 35 0
x-2320 9 10 11 21 22 24 30 31 32 37 39 40 0
2317 2318 2319 2320 0
x-2321 2 3 6 7 8 9 10 12 13 16 0
x-2322 2 3 17 19 20 21 22 23 26 27 0
x-2323 6 7 8 17 19 20 30 31 33 34 35 0
x-2324 9 10 12 21 22 23 30 31 37 38 40 0
2321 2322 2323 2324 0
x-2325 2 3 6 7 8 9 10 12 13 15 16 0
x-2326 2 3 17 19 20 21 22 23 26 27 28 0
x-2327 6 7 8 17 19 20 30 31 33 34 36 0
x-2328 9 10 12 21 22 23 30 31 37 38 39 0
2325 2326 2327 2328 0
x-2329 2 3 6 7 8 9 10 12 14 15 0
x-2330 2 3 17 19 20 21 22 23 25 28 0
x-2331 6 7 8 17 19 20 30 31 33 35 36 0
x-2332 9 10 12 21 22 23 30 31 38 39 40 0
2329 2330 2331 2332 0
x-2333 2 3 6 7 8 9 10 12 14 15 16 0
x-2334 2 3 17 19 20 21 22 23 25 27 28 0
x-2335 6 7 8 17 19 20 30 31 33 36 0
x-2336 9 10 12 21 22 23 30 31 38 39 0
2333 2334 2335 2336 0
x-2337 2 3 6 7 8 9 10 12 13 14 15 0
x-2338 2 3 17 19 20 21 22 23 25 26 28 0
x-2339 6 7 8 17 19 20 30 31 34 35 36 0
x-2340 9 10 12 21 22 23 30 31 37 39 40 0
2337 2338 2339 2340 0
x-2341 2 3 6 7 8 9 10 12 13 14 16 0
x-2342 2 3 17 19 20 21 22 23 25 26 27 0
x-2343 6 7 8 17 19 20 30 31 34 35 0
x-2344 9 10 12 21 22 23 30 31 37 40 0
2341 2342 2343 2344 0
x-2345 2 3 5 6 7 9 12 13 16 0
x-2346 2 3 17 18 20 22 23 26 27 0
x-2347 5 6 7 17 18 20 30 31 32 34 35 36 0
x-2348 9 12 22 23 30 31 32 37 40 0
2345 2346 2347 2348 0
x-2349 2 3 5 6 7 9 12 13 15 16 0
x-2350 2 3 17 18 20 22 23 26 27 28 0
x-2351 5 6 7 17 18 20 30 31 32 34 35 0
x-2352 9 12 22 23 30 31 32 37 39 40 0
2349 2350 2351 2352 0
x-2353 2 3 5 6 7 9 12 14 15 0
x-2354 2 3 17 18 20 22 23 25 28 0
x-2355 5 6 7 17 18 20 30 31 32 33 34 36 0
x-2356 9 12 22 23 30 31 32 38 39 0
2353 2354 2355 2356 0
x-2357 2 3 5 6 7 9 12 14 15 16 0
x-2358 2 3 17 18 20 22 23 25 27 28 0
x-2359 5 6 7 17 18 20 30 31 32 33 34 35 0
x-2360 9 12 22 23 30 31 32 38 39 40 0
2357 2358 2359 2360 0
x-2361 2 3 5 6 7 9 12 13 14 15 0
x-2362 2 3 17 18 20 22 23 25 26 28 0
x-2363 5 6 7 17 18 20 30 31 32 33 36 0
x-2364 9 12 22 23 30 31 32 37 38 39 0
2361 2362 2363 2364 0
x-2365 2 3 5 6 7 9 12 13 14 16 0
x-2366 2 3 17 18 20 22 23 25 26 27 0
x-2367 5 6 7 17 18 20 30 31 32 33 35 36 0
x-2368 9 12 22 23 30 31 32 37 38 40 0
2365 2366 2367 2368 0
x-2369 2 3 5 6 7 9 11 12 13 16 0
x-2370 2 3 17 18 20 22 23 24 26 27 0
x-2371 5 6 7 17 18 20 30 31 34 35 36 0
x-2372 9 11 12 22 23 24 30 31 37 39 40 0
2369 2370 2371 2372 0
x-2373 2 3 5 6 7 9 11 12 13 15 16 0
x-2374 2 3 17 18 20 22 23 24 26 27 28 0
x-2375 5 6 7 17 18 20 30 31 34 35 0
x-2376 9 11 12 22 23 24 30 31 37 40 0
2373 2374 2375 2376 0
x-2377 2 3 5 6 7 9 11 12 14 15 0
x-2378 2 3 17 18 20 22 23 24 25 28 0
x-2379 5 6 7 17 18 20 30 31 33 34 36 0
x-2380 9 11 12 22 23 24 30 31 37 38 39 0
2377 2378 2379 2380 0
x-2381 2 3 5 6 7 9 11 12 14 15 16 0
x-2382 2 3 17 18 20 22 23 24 25 27 28 0
x-2383 5 6 7 17 18 20 30 31 33 34 35 0
x-2384 9 11 12 22 23 24 30 31 37 38 40 0
2381 2382 2383 2384 0
x-2385 2 3 5 6 7 9 11 12 13 14 15 0
x-2386 2 3 17 18 20 22 23 24 25 26 28 0
x-2387 5 6 7 17 18 20 30 31 33 36 0
x-2388 9 11 12 22 23 24 30 31 38 39 0
2385 2386 2387 2388 0
x-2389 2 3 5 6 7 9 11 12 13 14 16 0
x-2390 2 3 17 18 20 22 23 24 25 26 27 0
x-2391 5 6 7 17 18 20 30 31 33 35 36 0
x-2392 9 11 12 22 23 24 30 31 38 39 40 0
2389 2390 2391 2392 0
x-2393 2 3 5 6 7 10 11 13 16 0
x-2394 2 3 17 18 20 21 24 26 27 0
x-2395 5 6 7 17 18 20 29 30 32 34 35 36 0
x-2396 10 11 21 24 29 30 32 38 39 0
2393 2394 2395 2396 0
x-2397 2 3 5 6 7 10 11 13 15 16 0
x-2398 2 3 17 18 20 21 24 26 27 28 0
x-2399 5 6 7 17 18 20 29 30 32 34 35 0
x-2400 10 11 21 24 29 30 32 38 39 40 0
2397 2398 2399 2400 0
x-2401 2 3 5 6 7 10 11 14 15 0
x-2402 2 3 17 18 20 21 24 25 28 0
x-2403 5 6 7 17 18 20 29 30 32 33 34 36 0
x-2404 10 11 21 24 29 30 32 37 40 0
2401 2402 2403 2404 0
x-2405 2 3 5 6 7 10 11 14 15 16 0
x-2406 2 3 17 18 20 21 24 25 27 28 0
x-2407 5 6 7 17 18 20 29 30 32 33 34 35 0
x-2408 10 11 21 24 29 30 32 37 39 40 0
2405 2406 2407 2408 0
x-2409 2 3 5 6 7 10 11 13 14 15 0
x-2410 2 3 17 18 20 21 24 25 26 28 0
x-2411 5 6 7 17 18 20 29 30 32 33 36 0
x-2412 10 11 21 24 29 30 32 37 38 40 0
2409 2410 2411 2412 0
x-2413 2 3 5 6 7 10 11 13 14 16 0
x-2414 2 3 17 18 20 21 24 25 26 27 0
x-2415 5 6 7 17 18 20 29 30 32 33 35 36 0
x-2416 10 11 21 24 29 30 32 37 38 39 0
2413 2414 2415 2416 0
x-2417 2 3 5 6 7 10 11 12 13 16 0
x-2418 2 3 17 18 20 21 23 24 26 27 0
x-2419 5 6 7 17 18 20 29 30 31 34 35 36 0
x-2420 10 11 12 21 23 24 29 30 31 37 38 39 0
2417 2418 2419 2420 0
x-2421 2 3 5 6 7 10 11 12 13 15 16 0
x-2422 2 3 17 18 20 21 23 24 26 27 28 0
x-2423 5 6 7 17 18 20 29 30 31 34 35 0
x-2424 10 11 12 21 23 24 29 30 31 37 38 40 0
2421 2422 2423 2424 0
x-2425 2 3 5 6 7 10 11 12 14 15 0
x-2426 2 3 17 18 20 21 23 24 25 28 0
x-2427 5 6 7 17 18 20 29 30 31 33 34 36 0
x-2428 10 11 12 21 23 24 29 30 31 37 39 40 0
2425 2426 2427 2428 0
x-2429 2 3 5 6 7 10 11 12 14 15 16 0
x-2430 2 3 17 18 20 21 23 24 25 27 28 0
x-2431 5 6 7 17 18 20 29 30 31 33 34 35 0
x-2432 10 11 12 21 23 24 29 30 31 37 40 0
2429 2430 2431 2432 0
x-2433 2 3 5 6 7 10 11 12 13 14 15 0
x-2434 2 3 17 18 20 21 23 24 25 26 28 0
x-2435 5 6 7 17 18 20 29 30 31 33 36 0
x-2436 10 11 12 21 23 24 29 30 31 38 39 40 0
2433 2434 2435 2436 0
x-2437 2 3 5 6 7 10 11 12 13 14 16 0
x-2438 2 3 17 18 20 21 23 24 25 26 27 0
x-2439 5 6 7 17 18 20 29 30 31 33 35 36 0
x-2440 10 11 12 21 23 24 29 30 31 38 39 0
2437 2438 2439 2440 0
x-2441 2 3 5 6 7 9 10 11 13 16 0
x-2442 2 3 17 18 20 21 22 24 26 27 0
x-2443 5 6 7 17 18 20 29 32 34 35 36 0
x-2444 9 10 11 21 22 24 29 32 38 39 40 0
2441 2442 2443 2444 0
x-2445 2 3 5 6 7 9 10 11 13 15 16 0
x-2446 2 3 17 18 20 21 22 24 26 27 28 0
x-2447 5 6 7 17 18 20 29 32 34 35 0
x-2448 9 10 11 21 22 24 29 32 38 39 0
2445 2446 2447 2448 0
x-2449 2 3 5 6 7 9 10 11 14 15 0
x-2450 2 3 17 18 20 21 22 24 25 28 0
x-2451 5 6 7 17 18 20 29 32 33 34 36 0
x-2452 9 10 11 21 22 24 29 32 37 38 40 0
2449 2450 2451 2452 0
x-2453 2 3 5 6 7 9 10 11 14 15 16 0
x-2454 2 3 17 18 20 21 22 24 25 27 28 0
x-2455 5 6 7 17 18 20 29 32 33 34 35 0
x-2456 9 10 11 21 22 24 29 32 37 38 39 0
2453 2454 2455 2456 0
x-2457 2 3 5 6 7 9 10 11 13 14 15 0
x-2458 2 3 17 18 20 21 22 24 25 26 28 0
x-2459 5 6 7 17 18 20 29 32 33 36 0
x-2460 9 10 11 21 22 24 29 32 37 40 0
2457 2458 2459 2460 0
x-2461 2 3 5 6 7 9 10 11 13 14 16 0
x-2462 2 3 17 18 20 21 22 24 25 26 27 0
x-2463 5 6 7 17 18 20 29 32 33 35 36 0
x-2464 9 10 11 21 22 24 29 32 37 39 40 0
2461 2462 2463 2464 0
x-2465 2 3 5 6 7 9 10 12 13 16 0
x-2466 2 3 17 18 20 21 22 23 26 27 0
x-2467 5 6 7 17 18 20 29 31 32 34 35 36 0
x-2468 9 10 12 21 22 23 29 31 32 37 38 40 0
2465 2466 2467 2468 0
x-2469 2 3 5 6 7 9 10 12 13 15 16 0
x-2470 2 3 17 18 20 21 22 23 26 27 28 0
x-2471 5 6 7 17 18 20 29 31 32 34 35 0
x-2472 9 10 12 21 22 23 29 31 32 37 38 39 0
2469 2470 2471 2472 0
x-2473 2 3 5 6 7 9 10 12 14 15 0
x-2474 2 3 17 18 20 21 22 23 25 28 0
x-2475 5 6 7 17 18 20 29 31 32 33 34 36 0
x-2476 9 10 12 21 22 23 29 31 32 38 39 40 0
2473 2474 2475 2476 0
x-2477 2 3 5 6 7 9 10 12 14 15 16 0
x-2478 2 3 17 18 20 21 22 23 25 27 28 0
x-2479 5 6 7 17 18 20 29 31 32 33 34 35 0
x-2480 9 10 12 21 22 23 29 31 32 38 39 0
2477 2478 2479 2480 0
x-2481 2 3 5 6 7 9 10 12 13 14 15 0
x-2482 2 3 17 18 20 21 22 23 25 26 28 0
x-2483 5 6 7 17 18 20 29 31 32 33 36 0
x-2484 9 10 12 21 22 23 29 31 32 37 39 40 0
2481 2482 2483 2484 0
x-2485 2 3 5 6 7 9 10 12 13 14 16 0
x-2486 2 3 17 18 20 21 22 23 25 26 27 0
x-2487 5 6 7 17 18 20 29 31 32 33 35 36 0
x-2488 9 10 12 21 22 23 29 31 32 37 40 0
2485 2486 2487 2488 0
x-2489 2 3 5 6 8 9 12 13 16 0
x-2490 2 3 17 18 19 22 23 26 27 0
x-2491 5 6 8 17 18 19 29 30 32 33 34 36 0
x-2492 9 12 22 23 29 30 32 37 40 0
2489 2490 2491 2492 0
x-2493 2 3 5 6 8 9 12 13 15 16 0
x-2494 2 3 17 18 19 22 23 26 27 28 0
x-2495 5 6 8 17 18 19 29 30 32 33 34 35 0
x-2496 9 12 22 23 29 30 32 37 39 40 0
2493 2494 2495 2496 0
x-2497 2 3 5 6 8 9 12 14 15 0
x-2498 2 3 17 18 19 22 23 25 28 0
x-2499 5 6 8 17 18 19 29 30 32 34 35 36 0
x-2500 9 12 22 23 29 30 32 38 39 0
2497 2498 2499 2500 0
x-2501 2 3 5 6 8 9 12 14 15 16 0
x-2502 2 3 17 18 19 22 23 25 27 28 0
x-2503 5 6 8 17 18 19 29 30 32 34 35 0
x-2504 9 12 22 23 29 30 32 38 39 40 0
2501 2502 2503 2504 0
x-2505 2 3 5 6 8 9 12 13 14 15 0
x-2506 2 3 17 18 19 22 23 25 26 28 0
x-2507 5 6 8 17 18 19 29 30 32 33 35 36 0
x-2508 9 12 22 23 29 30 32 37 38 39 0
2505 2506 2507 2508 0
x-2509 2 3 5 6 8 9 12 13 14 16 0
x-2510 2 3 17 18 19 22 23 25 26 27 0
x-2511 5 6 8 17 18 19 29 30 32 33 36 0
x-2512 9 12 22 23 29 30 32 37 38 40 0
2509 2510 2511 2512 0
x-2513 2 3 5 6 8 9 11 12 13 16 0
x-2514 2 3 17 18 19 22 23 24 26 27 0
x-2515 5 6 8 17 18 19 29 30 31 33 34 36 0
x-2516 9 11 12 22 23 24 29 30 31 37 39 40 0
2513 2514 2515 2516 0
x-2517 2 3 5 6 8 9 11 12 13 15 16 0
x-2518 2 3 17 18 19 22 23 24 26 27 28 0
x-2519 5 6 8 17 18 19 29 30 31 33 34 35 0
x-2520 9 11 12 22 23 24 29 30 31 37 40 0
2517 2518 2519 2520 0
x-2521 2 3 5 6 8 9 11 12 14 15 0
x-2522 2 3 17 18 19 22 23 24 25 28 0
x-2523 5 6 8 17 18 19 29 30 31 34 35 36 0
x-2524 9 11 12 22 23 24 29 30 31 37 38 39 0
2521 2522 2523 2524 0
x-2525 2 3 5 6 8 9 11 12 14 15 16 0
x-2526 2 3 17 18 19 22 23 24 25 27 28 0
x-2527 5 6 8 17 18 19 29 30 31 34 35 0
x-2528 9 11 12 22 23 24 29 30 31 37 38 40 0
2525 2526 2527 2528 0
x-2529 2 3 5 6 8 9 11 12 13 14 15 0
x-2530 2 3 17 18 19 22 23 24 25 26 28 0
x-2531 5 6 8 17 18 19 29 30 31 33 35 36 0
x-2532 9 11 12 22 23 24 29 30 31 38 39 0
2529 2530 2531 2532 0
x-2533 2 3 5 6 8 9 11 12 13 14 16 0
x-2534 2 3 17 18 19 22 23 24 25 26 27 0
x-2535 5 6 8 17 18 19 29 30 31 33 36 0
x-2536 9 11 12 22 23 24 29 30 31 38 39 40 0
2533 2534 2535 2536 0
x-2537 2 3 5 6 8 10 11 13 16 0
x-2538 2 3 17 18 19 21 24 26 27 0
x-2539 5 6 8 17 18 19 30 31 32 33 34 36 0
x-2540 10 11 21 24 30 31 32 38 39 0
2537 2538 2539 2540 0
x-2541 2 3 5 6 8 10 11 13 15 16 0
x-2542 2 3 17 18 19 21 24 26 27 28 0
x-2543 5 6 8 17 18 19 30 31 32 33 34 35 0
x-2544 10 11 21 24 30 31 32 38 39 40 0
2541 2542 2543 2544 0
x-2545 2 3 5 6 8 10 11 14 15 0
x-2546 2 3 17 18 19 21 24 25 28 0
x-2547 5 6 8 17 18 19 30 31 32 34 35 36 0
x-2548 10 11 21 24 30 31 32 37 40 0
2545 2546 2547 2548 0
x-2549 2 3 5 6 8 10 11 14 15 16 0
x-2550 2 3 17 18 19 21 24 25 27 28 0
x-2551 5 6 8 17 18 19 30 31 32 34 35 0
x-2552 10 11 21 24 30 31 32 37 39 40 0
2549 2550 2551 2552 0
x-2553 2 3 5 6 8 10 11 13 14 15 0
x-2554 2 3 17 18 19 21 24 25 26 28 0
x-2555 5 6 8 17 18 19 30 31 32 33 35 36 0
x-2556 10 11 21 24 30 31 32 37 38 40 0
2553 2554 2555 2556 0
x-2557 2 3 5 6 8 10 11 13 14 16 0
x-2558 2 3 17 18 19 21 24 25 26 27 0
x-2559 5 6 8 17 18 19 30 31 32 33 36 0
x-2560 10 11 21 24 30 31 32 37 38 39 0
2557 2558 2559 2560 0
x-2561 2 3 5 6 8 10 11 12 13 16 0
x-2562 2 3 17 18 19 21 23 24 26 27 0
x-2563 5 6 8 17 18 19 30 31 33 34 36 0
x-2564 10 11 12 21 23 24 30 31 37 38 39 0
2561 2562 2563 2564 0
x-2565 2 3 5 6 8 10 11 12 13 15 16 0
x-2566 2 3 17 18 19 21 23 24 26 27 28 0
x-2567 5 6 8 17 18 19 30 31 33 34 35 0
x-2568 10 11 12 21 23 24 30 31 37 38 40 0
2565 2566 2567 2568 0
x-2569 2 3 5 6 8 10 11 12 14 15 0
x-2570 2 3 17 18 19 21 23 24 25 28 0
x-2571 5 6 8 17 18 19 30 31 34 35 36 0
x-2572 10 11 12 21 23 24 30 31 37 39 40 0
2569 2570 2571 2572 0
x-2573 2 3 5 6 8 10 11 12 14 15 16 0
x-2574 2 3 17 18 19 21 23 24 25 27 28 0
x-2575 5 6 8 17 18 19 30 31 34 35 0
x-2576 10 11 12 21 23 24 30 31 37 40 0
2573 2574 2575 2576 0
x-2577 2 3 5 6 8 10 11 12 13 14 15 0
x-2578 2 3 17 18 19 21 23 24 25 26 28 0
x-2579 5 6 8 17 18 19 30 31 33 35 36 0
x-2580 10 11 12 21 23 24 30 31 38 39 40 0
2577 2578 2579 2580 0
x-2581 2 3 5 6 8 10 11 12 13 14 16 0
x-2582 2 3 17 18 19 21 23 24 25 26 27 0
x-2583 5 6 8 17 18 19 30 31 33 36 0
x-2584 10 11 12 21 23 24 30 31 38 39 0
2581 2582 2583 2584 0
x-2585 2 3 5 6 8 9 10 11 13 16 0
x-2586 2 3 17 18 19 21 22 24 26 27 0
x-2587 5 6 8 17 18 19 29 31 32 33 34 36 0
x-2588 9 10 11 21 22 24 29 31 32 38 39 40 0
2585 2586 2587 2588 0
x-2589 2 3 5 6 8 9 10 11 13 15 16 0
x-2590 2 3 17 18 19 21 22 24 26 27 28 0
x-2591 5 6 8 17 18 19 29 31 32 33 34 35 0
x-2592 9 10 11 21 22 24 29 31 32 38 39 0
2589 2590 2591 2592 0
x-2593 2 3 5 6 8 9 10 11 14 15 0
x-2594 2 3 17 18 19 21 22 24 25 28 0
x-2595 5 6 8 17 18 19 29 31 32 34 35 36 0
x-2596 9 10 11 21 22 24 29 31 32 37 38 40 0
2593 2594 2595 2596 0
x-2597 2 3 5 6 8 9 10 11 14 15 16 0
x-2598 2 3 17 18 19 21 22 24 25 27 28 0
x-2599 5 6 8 17 18 19 29 31 32 34 35 0
x-2600 9 10 11 21 22 24 29 31 32 37 38 39 0
2597 2598 2599 2600 0
x-2601 2 3 5 6 8 9 10 11 13 14 15 0
x-2602 2 3 17 18 19 21 22 24 25 26 28 0
x-2603 5 6 8 17 18 19 29 31 32 33 35 36 0
x-2604 9 10 11 21 22 24 29 31 32 37 40 0
2601 2602 2603 2604 0
x-2605 2 3 5 6 8 9 10 11 13 14 16 0
x-2606 2 3 17 18 19 21 22 24 25 26 27 0
x-2607 5 6 8 17 18 19 29 31 32 33 36 0
x-2608 9 10 11 21 22 24 29 31 32 37 39 40 0
2605 2606 2607 2608 0
x-2609 2 3 5 6 8 9 10 12 13 16 0
x-2610 2 3 17 18 19 21 22 23 26 27 0
x-2611 5 6 8 17 18 19 29 32 33 34 36 0
x-2612 9 10 12 21 22 23 29 32 37 38 40 0
2609 2610 2611 2612 0
x-2613 2 3 5 6 8 9 10 12 13 15 16 0
x-2614 2 3 17 18 19 21 22 23 26 27 28 0
x-2615 5 6 8 17 18 19 29 32 33 34 35 0
x-2616 9 10 12 21 22 23 29 32 37 38 39 0
2613 2614 2615 2616 0
x-2617 2 3 5 6 8 9 10 12 14 15 0
x-2618 2 3 17 18 19 21 22 23 25 28 0
x-2619 5 6 8 17 18 19 29 32 34 35 36 0
x-2620 9 10 12 21 22 23 29 32 38 39 40 0
2617 2618 2619 2620 0
x-2621 2 3 5 6 8 9 10 12 14 15 16 0
x-2622 2 3 17 18 19 21 22 23 25 27 28 0
x-2623 5 6 8 17 18 19 29 32 34 35 0
x-2624 9 10 12 21 22 23 29 32 38 39 0
2621 2622 2623 2624 0
x-2625 2 3 5 6 8 9 10 12 13 14 15 0
x-2626 2 3 17 18 19 21 22 23 25 26 28 0
x-2627 5 6 8 17 18 19 29 32 33 35 36 0
x-2628 9 10 12 21 22 23 29 32 37 39 40 0
2625 2626 2627 2628 0
x-2629 2 3 5 6 8 9 10 12 13 14 16 0
x-2630 2 3 17 18 19 21 22 23 25 26 27 0
x-2631 5 6 8 17 18 19 29 32 33 36 0
x-2632 9 10 12 21 22 23 29 32 37 40 0
2629 2630 2631 2632 0
x-2633 2 3 4 5 8 9 12 13 16 0
x-2634 2 3 4 17 18 19 21 22 23 25 26 27 0
x-2635 5 8 17 18 19 29 32 33 36 0
x-2636 9 12 21 22 23 29 32 37 40 0
2633 2634 2635 2636 0
x-2637 2 3 4 5 8 9 12 13 15 16 0
x-2638 2 3 4 17 18 19 21 22 23 25 26 28 0
x-2639 5 8 17 18 19 29 32 33 35 36 0
x-2640 9 12 21 22 23 29 32 37 39 40 0
2637 2638 2639 2640 0
x-2641 2 3 4 5 8 9 12 14 15 0
x-2642 2 3 4 17 18 19 21 22 23 25 27 28 0
x-2643 5 8 17 18 19 29 32 34 35 0
x-2644 9 12 21 22 23 29 32 38 39 0
2641 2642 2643 2644 0
x-2645 2 3 4 5 8 9 12 14 15 16 0
x-2646 2 3 4 17 18 19 21 22 23 25 28 0
x-2647 5 8 17 18 19 29 32 34 35 36 0
x-2648 9 12 21 22 23 29 32 38 39 40 0
2645 2646 2647 2648 0
x-2649 2 3 4 5 8 9 12 13 14 15 0
x-2650 2 3 4 17 18 19 21 22 23 26 27 28 0
x-2651 5 8 17 18 19 29 32 33 34 35 0
x-2652 9 12 21 22 23 29 32 37 38 39 0
2649 2650 2651 2652 0
x-2653 2 3 4 5 8 9 12 13 14 16 0
x-2654 2 3 4 17 18 19 21 22 23 26 27 0
x-2655 5 8 17 18 19 29 32 33 34 36 0
x-2656 9 12 21 22 23 29 32 37 38 40 0
2653 2654 2655 2656 0
x-2657 2 3 4 5 8 9 11 12 13 16 0
x-2658 2 3 4 17 18 19 21 22 24 25 26 27 0
x-2659 5 8 17 18 19 29 31 32 33 36 0
x-2660 9 11 12 21 22 24 29 31 32 37 39 40 0
2657 2658 2659 2660 0
x-2661 2 3 4 5 8 9 11 12 13 15 16 0
x-2662 2 3 4 17 18 19 21 22 24 25 26 28 0
x-2663 5 8 17 18 19 29 31 32 33 35 36 0
x-2664 9 11 12 21 22 24 29 31 32 37 40 0
2661 2662 2663 2664 0
x-2665 2 3 4 5 8 9 11 12 14 15 0
x-2666 2 3 4 17 18 19 21 22 24 25 27 28 0
x-2667 5 8 17 18 19 29 31 32 34 35 0
x-2668 9 11 12 21 22 24 29 31 32 37 38 39 0
2665 2666 2667 2668 0
x-2669 2 3 4 5 8 9 11 12 14 15 16 0
x-2670 2 3 4 17 18 19 21 22 24 25 28 0
x-2671 5 8 17 18 19 29 31 32 34 35 36 0
x-2672 9 11 12 21 22 24 29 31 32 37 38 40 0
2669 2670 2671 2672 0
x-2673 2 3 4 5 8 9 11 12 13 14 15 0
x-2674 2 3 4 17 18 19 21 22 24 26 27 28 0
x-2675 5 8 17 18 19 29 31 32 33 34 35 0
x-2676 9 11 12 21 22 24 29 31 32 38 39 0
2673 2674 2675 2676 0
x-2677 2 3 4 5 8 9 11 12 13 14 16 0
x-2678 2 3 4 17 18 19 21 22 24 26 27 0
x-2679 5 8 17 18 19 29 31 32 33 34 36 0
x-2680 9 11 12 21 22 24 29 31 32 38 39 40 0
2677 2678 2679 2680 0
x-2681 2 3 4 5 8 10 11 13 16 0
x-2682 2 3 4 17 18 19 21 23 24 25 26 27 0
x-2683 5 8 17 18 19 30 31 33 36 0
x-2684 10 11 21 23 24 30 31 38 39 0
2681 2682 2683 2684 0
x-2685 2 3 4 5 8 10 11 13 15 16 0
x-2686 2 3 4 17 18 19 21 23 24 25 26 28 0
x-2687 5 8 17 18 19 30 31 33 35 36 0
x-2688 10 11 21 23 24 30 31 38 39 40 0
2685 2686 2687 2688 0
x-2689 2 3 4 5 8 10 11 14 15 0
x-2690 2 3 4 17 18 19 21 23 24 25 27 28 0
x-2691 5 8 17 18 19 30 31 34 35 0
x-2692 10 11 21 23 24 30 31 37 40 0
2689 2690 2691 2692 0
x-2693 2 3 4 5 8 10 11 14 15 16 0
x-2694 2 3 4 17 18 19 21 23 24 25 28 0
x-2695 5 8 17 18 19 30 31 34 35 36 0
x-2696 10 11 21 23 24 30 31 37 39 40 0
2693 2694 2695 2696 0
x-2697 2 3 4 5 8 10 11 13 14 15 0
x-2698 2 3 4 17 18 19 21 23 24 26 27 28 0
x-2699 5 8 17 18 19 30 31 33 34 35 0
x-2700 10 11 21 23 24 30 31 37 38 40 0
2697 2698 2699 2700 0
x-2701 2 3 4 5 8 10 11 13 14 16 0
x-2702 2 3 4 17 18 19 21 23 24 26 27 0
x-2703 5 8 17 18 19 30 31 33 34 36 0
x-2704 10 11 21 23 24 30 31 37 38 39 0
2701 2702 2703 2704 0
x-2705 2 3 4 5 8 10 11 12 13 16 0
x-2706 2 3 4 17 18 19 21 24 25 26 27 0
x-2707 5 8 17 18 19 30 31 32 33 36 0
x-2708 10 11 12 21 24 30 31 32 37 38 39 0
2705 2706 2707 2708 0
x-2709 2 3 4 5 8 10 11 12 13 15 16 0
x-2710 2 3 4 17 18 19 21 24 25 26 28 0
x-2711 5 8 17 18 19 30 31 32 33 35 36 0
x-2712 10 11 12 21 24 30 31 32 37 38 40 0
2709 2710 2711 2712 0
x-2713 2 3 4 5 8 10 11 12 14 15 0
x-2714 2 3 4 17 18 19 21 24 25 27 28 0
x-2715 5 8 17 18 19 30 31 32 34 35 0
x-2716 10 11 12 21 24 30 31 32 37 39 40 0
2713 2714 2715 2716 0
x-2717 2 3 4 5 8 10 11 12 14 15 16 0
x-2718 2 3 4 17 18 19 21 24 25 28 0
x-2719 5 8 17 18 19 30 31 32 34 35 36 0
x-2720 10 11 12 21 24 30 31 32 37 40 0
2717 2718 2719 2720 0
x-2721 2 3 4 5 8 10 11 12 13 14 15 0
x-2722 2 3 4 17 18 19 21 24 26 27 28 0
x-2723 5 8 17 18 19 30 31 32 33 34 35 0
x-2724 10 11 12 21 24 30 31 32 38 39 40 0
2721 2722 2723 2724 0
x-2725 2 3 4 5 8 10 11 12 13 14 16 0
x-2726 2 3 4 17 18 19 21 24 26 27 0
x-2727 5 8 17 18 19 30 31 32 33 34 36 0
x-2728 10 11 12 21 24 30 31 32 38 39 0
2725 2726 2727 2728 0
x-2729 2 3 4 5 8 9 10 11 13 16 0
x-2730 2 3 4 17 18 19 22 23 24 25 26 27 0
x-2731 5 8 17 18 19 29 30 31 33 36 0
x-2732 9 10 11 22 23 24 29 30 31 38 39 40 0
2729 2730 2731 2732 0
x-2733 2 3 4 5 8 9 10 11 13 15 16 0
x-2734 2 3 4 17 18 19 22 23 24 25 26 28 0
x-2735 5 8 17 18 19 29 30 31 33 35 36 0
x-2736 9 10 11 22 23 24 29 30 31 38 39 0
2733 2734 2735 2736 0
x-2737 2 3 4 5 8 9 10 11 14 15 0
x-2738 2 3 4 17 18 19 22 23 24 25 27 28 0
x-2739 5 8 17 18 19 29 30 31 34 35 0
x-2740 9 10 11 22 23 24 29 30 31 37 38 40 0
2737 2738 2739 2740 0
x-2741 2 3 4 5 8 9 10 11 14 15 16 0
x-2742 2 3 4 17 18 19 22 23 24 25 28 0
x-2743 5 8 17 18 19 29 30 31 34 35 36 0
x-2744 9 10 11 22 23 24 29 30 31 37 38 39 0
2741 2742 2743 2744 0
x-2745 2 3 4 5 8 9 10 11 13 14 15 0
x-2746 2 3 4 17 18 19 22 23 24 26 27 28 0
x-2747 5 8 17 18 19 29 30 31 33 34 35 0
x-2748 9 10 11 22 23 24 29 30 31 37 40 0
2745 2746 2747 2748 0
x-2749 2 3 4 5 8 9 10 11 13 14 16 0
x-2750 2 3 4 17 18 19 22 23 24 26 27 0
x-2751 5 8 17 18 19 29 30 31 33 34 36 0
x-2752 9 10 11 22 23 24 29 30 31 37 39 40 0
2749 2750 2751 2752 0
x-2753 2 3 4 5 8 9 10 12 13 16 0
x-2754 2 3 4 17 18 19 22 23 25 26 27 0
x-2755 5 8 17 18 19 29 30 32 33 36 0
x-2756 9 10 12 22 23 29 30 32 37 38 40 0
2753 2754 2755 2756 0
x-2757 2 3 4 5 8 9 10 12 13 15 16 0
x-2758 2 3 4 17 18 19 22 23 25 26 28 0
x-2759 5 8 17 18 19 29 30 32 33 35 36 0
x-2760 9 10 12 22 23 29 30 32 37 38 39 0
2757 2758 2759 2760 0
x-2761 2 3 4 5 8 9 10 12 14 15 0
x-2762 2 3 4 17 18 19 22 23 25 27 28 0
x-2763 5 8 17 18 19 29 30 32 34 35 0
x-2764 9 10 12 22 23 29 30 32 38 39 40 0
2761 2762 2763 2764 0
x-2765 2 3 4 5 8 9 10 12 14 15 16 0
x-2766 2 3 4 17 18 19 22 23 25 28 0
x-2767 5 8 17 18 19 29 30 32 34 35 36 0
x-2768 9 10 12 22 23 29 30 32 38 39 0
2765 2766 2767 2768 0
x-2769 2 3 4 5 8 9 10 12 13 14 15 0
x-2770 2 3 4 17 18 19 22 23 26 27 28 0
x-2771 5 8 17 18 19 29 30 32 33 34 35 0
x-2772 9 10 12 22 23 29 30 32 37 39 40 0
2769 2770 2771 2772 0
x-2773 2 3 4 5 8 9 10 12 13 14 16 0
x-2774 2 3 4 17 18 19 22 23 26 27 0
x-2775 5 8 17 18 19 29 30 32 33 34 36 0
x-2776 9 10 12 22 23 29 30 32 37 40 0
2773 2774 2775 2776 0
x-2777 2 3 4 5 7 8 9 12 13 16 0
x-2778 2 3 4 17 18 20 21 22 23 25 26 27 0
x-2779 5 7 8 17 18 20 29 31 32 33 35 36 0
x-2780 9 12 21 22 23 29 31 32 37 40 0
2777 2778 2779 2780 0
x-2781 2 3 4 5 7 8 9 12 13 15 16 0
x-2782 2 3 4 17 18 20 21 22 23 25 26 28 0
x-2783 5 7 8 17 18 20 29 31 32 33 36 0
x-2784 9 12 21 22 23 29 31 32 37 39 40 0
2781 2782 2783 2784 0
x-2785 2 3 4 5 7 8 9 12 14 15 0
x-2786 2 3 4 17 18 20 21 22 23 25 27 28 0
x-2787 5 7 8 17 18 20 29 31 32 33 34 35 0
x-2788 9 12 21 22 23 29 31 32 38 39 0
2785 2786 2787 2788 0
x-2789 2 3 4 5 7 8 9 12 14 15 16 0
x-2790 2 3 4 17 18 20 21 22 23 25 28 0
x-2791 5 7 8 17 18 20 29 31 32 33 34 36 0
x-2792 9 12 21 22 23 29 31 32 38 39 40 0
2789 2790 2791 2792 0
x-2793 2 3 4 5 7 8 9 12 13 14 15 0
x-2794 2 3 4 17 18 20 21 22 23 26 27 28 0
x-2795 5 7 8 17 18 20 29 31 32 34 35 0
x-2796 9 12 21 22 23 29 31 32 37 38 39 0
2793 2794 2795 2796 0
x-2797 2 3 4 5 7 8 9 12 13 14 16 0
x-2798 2 3 4 17 18 20 21 22 23 26 27 0
x-2799 5 7 8 17 18 20 29 31 32 34 35 36 0
x-2800 9 12 21 22 23 29 31 32 37 38 40 0
2797 2798 2799 2800 0
x-2801 2 3 4 5 7 8 9 11 12 13 16 0
x-2802 2 3 4 17 18 20 21 22 24 25 26 27 0
x-2803 5 7 8 17 18 20 29 32 33 35 36 0
x-2804 9 11 12 21 22 24 29 32 37 39 40 0
2801 2802 2803 2804 0
x-2805 2 3 4 5 7 8 9 11 12 13 15 16 0
x-2806 2 3 4 17 18 20 21 22 24 25 26 28 0
x-2807 5 7 8 17 18 20 29 32 33 36 0
x-2808 9 11 12 21 22 24 29 32 37 40 0
2805 2806 2807 2808 0
x-2809 2 3 4 5 7 8 9 11 12 14 15 0
x-2810 2 3 4 17 18 20 21 22 24 25 27 28 0
x-2811 5 7 8 17 18 20 29 32 33 34 35 0
x-2812 9 11 12 21 22 24 29 32 37 38 39 0
2809 2810 2811 2812 0
x-2813 2 3 4 5 7 8 9 11 12 14 15 16 0
x-2814 2 3 4 17 18 20 21 22 24 25 28 0
x-2815 5 7 8 17 18 20 29 32 33 34 36 0
x-2816 9 11 12 21 22 24 29 32 37 38 40 0
2813 2814 2815 2816 0
x-2817 2 3 4 5 7 8 9 11 12 13 14 15 0
x-2818 2 3 4 17 18 20 21 22 24 26 27 28 0
x-2819 5 7 8 17 18 20 29 32 34 35 0
x-2820 9 11 12 21 22 24 29 32 38 39 0
2817 2818 2819 2820 0
x-2821 2 3 4 5 7 8 9 11 12 13 14 16 0
x-2822 2 3 4 17 18 20 21 22 24 26 27 0
x-2823 5 7 8 17 18 20 29 32 34 35 36 0
x-2824 9 11 12 21 22 24 29 32 38 39 40 0
2821 2822 2823 2824 0
x-2825 2 3 4 5 7 8 10 11 13 16 0
x-2826 2 3 4 17 18 20 21 23 24 25 26 27 0
x-2827 5 7 8 17 18 20 29 30 31 33 35 36 0
x-2828 10 11 21 23 24 29 30 31 38 39 0
2825 2826 2827 2828 0
x-2829 2 3 4 5 7 8 10 11 13 15 16 0
x-2830 2 3 4 17 18 20 21 23 24 25 26 28 0
x-2831 5 7 8 17 18 20 29 30 31 33 36 0
x-2832 10 11 21 23 24 29 30 31 38 39 40 0
2829 2830 2831 2832 0
x-2833 2 3 4 5 7 8 10 11 14 15 0
x-2834 2 3 4 17 18 20 21 23 24 25 27 28 0
x-2835 5 7 8 17 18 20 29 30 31 33 34 35 0
x-2836 10 11 21 23 24 29 30 31 37 40 0
2833 2834 2835 2836 0
x-2837 2 3 4 5 7 8 10 11 14 15 16 0
x-2838 2 3 4 17 18 20 21 23 24 25 28 0
x-2839 5 7 8 17 18 20 29 30 31 33 34 36 0
x-2840 10 11 21 23 24 29 30 31 37 39 40 0
2837 2838 2839 2840 0
x-2841 2 3 4 5 7 8 10 11 13 14 15 0
x-2842 2 3 4 17 18 20 21 23 24 26 27 28 0
x-2843 5 7 8 17 18 20 29 30 31 34 35 0
x-2844 10 11 21 23 24 29 30 31 37 38 40 0
2841 2842 2843 2844 0
x-2845 2 3 4 5 7 8 10 11 13 14 16 0
x-2846 2 3 4 17 18 20 21 23 24 26 27 0
x-2847 5 7 8 17 18 20 29 30 31 34 35 36 0
x-2848 10 11 21 23 24 29 30 31 37 38 39 0
2845 2846 2847 2848 0
x-2849 2 3 4 5 7 8 10 11 12 13 16 0
x-2850 2 3 4 17 18 20 21 24 25 26 27 0
x-2851 5 7 8 17 18 20 29 30 32 33 35 36 0
x-2852 10 11 12 21 24 29 30 32 37 38 39 0
2849 2850 2851 2852 0
x-2853 2 3 4 5 7 8 10 11 12 13 15 16 0
x-2854 2 3 4 17 18 20 21 24 25 26 28 0
x-2855 5 7 8 17 18 20 29 30 32 33 36 0
x-2856 10 11 12 21 24 29 30 32 37 38 40 0
2853 2854 2855 2856 0
x-2857 2 3 4 5 7 8 10 11 12 14 15 0
x-2858 2 3 4 17 18 20 21 24 25 27 28 0
x-2859 5 7 8 17 18 20 29 30 32 33 34 35 0
x-2860 10 11 12 21 24 29 30 32 37 39 40 0
2857 2858 2859 2860 0
x-2861 2 3 4 5 7 8 10 11 12 14 15 16 0
x-2862 2 3 4 17 18 20 21 24 25 28 0
x-2863 5 7 8 17 18 20 29 30 32 33 34 36 0
x-2864 10 11 12 21 24 29 30 32 37 40 0
2861 2862 2863 2864 0
x-2865 2 3 4 5 7 8 10 11 12 13 14 15 0
x-2866 2 3 4 17 18 20 21 24 26 27 28 0
x-2867 5 7 8 17 18 20 29 30 32 34 35 0
x-2868 10 11 12 21 24 29 30 32 38 39 40 0
2865 2866 2867 2868 0
x-2869 2 3 4 5 7 8 10 11 12 13 14 16 0
x-2870 2 3 4 17 18 20 21 24 26 27 0
x-2871 5 7 8 17 18 20 29 30 32 34 35 36 0
x-2872 10 11 12 21 24 29 30 32 38 39 0
2869 2870 2871 2872 0
x-2873 2 3 4 5 7 8 9 10 11 13 16 0
x-2874 2 3 4 17 18 20 22 23 24 25 26 27 0
x-2875 5 7 8 17 18 20 30 31 33 35 36 0
x-2876 9 10 11 22 23 24 30 31 38 39 40 0
2873 2874 2875 2876 0
x-2877 2 3 4 5 7 8 9 10 11 13 15 16 0
x-2878 2 3 4 17 18 20 22 23 24 25 26 28 0
x-2879 5 7 8 17 18 20 30 31 33 36 0
x-2880 9 10 11 22 23 24 30 31 38 39 0
2877 2878 2879 2880 0
x-2881 2 3 4 5 7 8 9 10 11 14 15 0
x-2882 2 3 4 17 18 20 22 23 24 25 27 28 0
x-2883 5 7 8 17 18 20 30 31 33 34 35 0
x-2884 9 10 11 22 23 24 30 31 37 38 40 0
2881 2882 2883 2884 0
x-2885 2 3 4 5 7 8 9 10 11 14 15 16 0
x-2886 2 3 4 17 18 20 22 23 24 25 28 0
x-2887 5 7 8 17 18 20 30 31 33 34 36 0
x-2888 9 10 11 22 23 24 30 31 37 38 39 0
2885 2886 2887 2888 0
x-2889 2 3 4 5 7 8 9 10 11 13 14 15 0
x-2890 2 3 4 17 18 20 22 23 24 26 27 28 0
x-2891 5 7 8 17 18 20 30 31 34 35 0
x-2892 9 10 11 22 23 24 30 31 37 40 0
2889 2890 2891 2892 0
x-2893 2 3 4 5 7 8 9 10 11 13 14 16 0
x-2894 2 3 4 17 18 20 22 23 24 26 27 0
x-2895 5 7 8 17 18 20 30 31 34 35 36 0
x-2896 9 10 11 22 23 24 30 31 37 39 40 0
2893 2894 2895 2896 0
x-2897 2 3 4 5 7 8 9 10 12 13 16 0
x-2898 2 3 4 17 18 20 22 23 25 26 27 0
x-2899 5 7 8 17 18 20 30 31 32 33 35 36 0
x-2900 9 10 12 22 23 30 31 32 37 38 40 0
2897 2898 2899 2900 0
x-2901 2 3 4 5 7 8 9 10 12 13 15 16 0
x-2902 2 3 4 17 18 20 22 23 25 26 28 0
x-2903 5 7 8 17 18 20 30 31 32 33 36 0
x-2904 9 10 12 22 23 30 31 32 37 38 39 0
2901 2902 2903 2904 0
x-2905 2 3 4 5 7 8 9 10 12 14 15 0
x-2906 2 3 4 17 18 20 22 23 25 27 28 0
x-2907 5 7 8 17 18 20 30 31 32 33 34 35 0
x-2908 9 10 12 22 23 30 31 32 38 39 40 0
2905 2906 2907 2908 0
x-2909 2 3 4 5 7 8 9 10 12 14 15 16 0
x-2910 2 3 4 17 18 20 22 23 25 28 0
x-2911 5 7 8 17 18 20 30 31 32 33 34 36 0
x-2912 9 10 12 22 23 30 31 32 38 39 0
2909 2910 2911 2912 0
x-2913 2 3 4 5 7 8 9 10 12 13 14 15 0
x-2914 2 3 4 17 18 20 22 23 26 27 28 0
x-2915 5 7 8 17 18 20 30 31 32 34 35 0
x-2916 9 10 12 22 23 30 31 32 37 39 40 0
2913 2914 2915 2916 0
x-2917 2 3 4 5 7 8 9 10 12 13 14 16 0
x-2918 2 3 4 17 18 20 22 23 26 27 0
x-2919 5 7 8 17 18 20 30 31 32 34 35 36 0
x-2920 9 10 12 22 23 30 31 32 37 40 0
2917 2918 2919 2920 0
x-2921 2 3 4 6 7 9 12 13 16 0
x-2922 2 3 4 17 19 20 21 22 23 25 26 27 0
x-2923 6 7 17 19 20 30 31 34 35 0
x-2924 9 12 21 22 23 30 31 37 40 0
2921 2922 2923 2924 0
x-2925 2 3 4 6 7 9 12 13 15 16 0
x-2926 2 3 4 17 19 20 21 22 23 25 26 28 0
x-2927 6 7 17 19 20 30 31 34 35 36 0
x-2928 9 12 21 22 23 30 31 37 39 40 0
2925 2926 2927 2928 0
x-2929 2 3 4 6 7 9 12 14 15 0
x-2930 2 3 4 17 19 20 21 22 23 25 27 28 0
x-2931 6 7 17 19 20 30 31 33 36 0
x-2932 9 12 21 22 23 30 31 38 39 0
2929 2930 2931 2932 0
x-2933 2 3 4 6 7 9 12 14 15 16 0
x-2934 2 3 4 17 19 20 21 22 23 25 28 0
x-2935 6 7 17 19 20 30 31 33 35 36 0
x-2936 9 12 21 22 23 30 31 38 39 40 0
2933 2934 2935 2936 0
x-2937 2 3 4 6 7 9 12 13 14 15 0
x-2938 2 3 4 17 19 20 21 22 23 26 27 28 0
x-2939 6 7 17 19 20 30 31 33 34 36 0
x-2940 9 12 21 22 23 30 31 37 38 39 0
2937 2938 2939 2940 0
x-2941 2 3 4 6 7 9 12 13 14 16 0
x-2942 2 3 4 17 19 20 21 22 23 26 27 0
x-2943 6 7 17 19 20 30 31 33 34 35 0
x-2944 9 12 21 22 23 30 31 37 38 40 0
2941 2942 2943 2944 0
x-2945 2 3 4 6 7 9 11 12 13 16 0
x-2946 2 3 4 17 19 20 21 22 24 25 26 27 0
x-2947 6 7 17 19 20 30 31 32 34 35 0
x-2948 9 11 12 21 22 24 30 31 32 37 39 40 0
2945 2946 2947 2948 0
x-2949 2 3 4 6 7 9 11 12 13 15 16 0
x-2950 2 3 4 17 19 20 21 22 24 25 26 28 0
x-2951 6 7 17 19 20 30 31 32 34 35 36 0
x-2952 9 11 12 21 22 24 30 31 32 37 40 0
2949 2950 2951 2952 0
x-2953 2 3 4 6 7 9 11 12 14 15 0
x-2954 2 3 4 17 19 20 21 22 24 25 27 28 0
x-2955 6 7 17 19 20 30 31 32 33 36 0
x-2956 9 11 12 21 22 24 30 31 32 37 38 39 0
2953 2954 2955 2956 0
x-2957 2 3 4 6 7 9 11 12 14 15 16 0
x-2958 2 3 4 17 19 20 21 22 24 25 28 0
x-2959 6 7 17 19 20 30 31 32 33 35 36 0
x-2960 9 11 12 21 22 24 30 31 32 37 38 40 0
2957 2958 2959 2960 0
x-2961 2 3 4 6 7 9 11 12 13 14 15 0
x-2962 2 3 4 17 19 20 21 22 24 26 27 28 0
x-2963 6 7 17 19 20 30 31 32 33 34 36 0
x-2964 9 11 12 21 22 24 30 31 32 38 39 0
2961 2962 2963 2964 0
x-2965 2 3 4 6 7 9 11 12 13 14 16 0
x-2966 2 3 4 17 19 20 21 22 24 26 27 0
x-2967 6 7 17 19 20 30 31 32 33 34 35 0
x-2968 9 11 12 21 22 24 30 31 32 38 39 40 0
2965 2966 2967 2968 0
x-2969 2 3 4 6 7 10 11 13 16 0
x-2970 2 3 4 17 19 20 21 23 24 25 26 27 0
x-2971 6 7 17 19 20 29 32 34 35 0
x-2972 10 11 21 23 24 29 32 38 39 0
2969 2970 2971 2972 0
x-2973 2 3 4 6 7 10 11 13 15 16 0
x-2974 2 3 4 17 19 20 21 23 24 25 26 28 0
x-2975 6 7 17 19 20 29 32 34 35 36 0
x-2976 10 11 21 23 24 29 32 38 39 40 0
2973 2974 2975 2976 0
x-2977 2 3 4 6 7 10 11 14 15 0
x-2978 2 3 4 17 19 20 21 23 24 25 27 28 0
x-2979 6 7 17 19 20 29 32 33 36 0
x-2980 10 11 21 23 24 29 32 37 40 0
2977 2978 2979 2980 0
x-2981 2 3 4 6 7 10 11 14 15 16 0
x-2982 2 3 4 17 19 20 21 23 24 25 28 0
x-2983 6 7 17 19 20 29 32 33 35 36 0
x-2984 10 11 21 23 24 29 32 37 39 40 0
2981 2982 2983 2984 0
x-2985 2 3 4 6 7 10 11 13 14 15 0
x-2986 2 3 4 17 19 20 21 23 24 26 27 28 0
x-2987 6 7 17 19 20 29 32 33 34 36 0
x-2988 10 11 21 23 24 29 32 37 38 40 0
2985 2986 2987 2988 0
x-2989 2 3 4 6 7 10 11 13 14 16 0
x-2990 2 3 4 17 19 20 21 23 24 26 27 0
x-2991 6 7 17 19 20 29 32 33 34 35 0
x-2992 10 11 21 23 24 29 32 37 38 39 0
2989 2990 2991 2992 0
x-2993 2 3 4 6 7 10 11 12 13 16 0
x-2994 2 3 4 17 19 20 21 24 25 26 27 0
x-2995 6 7 17 19 20 29 31 32 34 35 0
x-2996 10 11 12 21 24 29 31 32 37 38 39 0
2993 2994 2995 2996 0
x-2997 2 3 4 6 7 10 11 12 13 15 16 0
x-2998 2 3 4 17 19 20 21 24 25 26 28 0
x-2999 6 7 17 19 20 29 31 32 34 35 36 0
x-3000 10 11 12 21 24 29 31 32 37 38 40 0
2997 2998 2999 3000 0
x-3001 2 3 4 6 7 10 11 12 14 15 0
x-3002 2 3 4 17 19 20 21 24 25 27 28 0
x-3003 6 7 17 19 20 29 31 32 33 36 0
x-3004 10 11 12 21 24 29 31 32 37 39 40 0
3001 3002 3003 3004 0
x-3005 2 3 4 6 7 10 11 12 14 15 16 0
x-3006 2 3 4 17 19 20 21 24 25 28 0
x-3007 6 7 17 19 20 29 31 32 33 35 36 0
x-3008 10 11 12 21 24 29 31 32 37 40 0
3005 3006 3007 3008 0
x-3009 2 3 4 6 7 10 11 12 13 14 15 0
x-3010 2 3 4 17 19 20 21 24 26 27 28 0
x-3011 6 7 17 19 20 29 31 32 33 34 36 0
x-3012 10 11 12 21 24 29 31 32 38 39 40 0
3009 3010 3011 3012 0
x-3013 2 3 4 6 7 10 11 12 13 14 16 0
x-3014 2 3 4 17 19 20 21 24 26 27 0
x-3015 6 7 17 19 20 29 31 32 33 34 35 0
x-3016 10 11 12 21 24 29 31 32 38 39 0
3013 3014 3015 3016 0
x-3017 2 3 4 6 7 9 10 11 13 16 0
x-3018 2 3 4 17 19 20 22 23 24 25 26 27 0
x-3019 6 7 17 19 20 29 30 32 34 35 0
x-3020 9 10 11 22 23 24 29 30 32 38 39 40 0
3017 3018 3019 3020 0
x-3021 2 3 4 6 7 9 10 11 13 15 16 0
x-3022 2 3 4 17 19 20 22 23 24 25 26 28 0
x-3023 6 7 17 19 20 29 30 32 34 35 36 0
x-3024 9 10 11 22 23 24 29 30 32 38 39 0
3021 3022 3023 3024 0
x-3025 2 3 4 6 7 9 10 11 14 15 0
x-3026 2 3 4 17 19 20 22 23 24 25 27 28 0
x-3027 6 7 17 19 20 29 30 32 33 36 0
x-3028 9 10 11 22 23 24 29 30 32 37 38 40 0
3025 3026 3027 3028 0
x-3029 2 3 4 6 7 9 10 11 14 15 16 0
x-3030 2 3 4 17 19 20 22 23 24 25 28 0
x-3031 6 7 17 19 20 29 30 32 33 35 36 0
x-3032 9 10 11 22 23 24 29 30 32 37 38 39 0
3029 3030 3031 3032 0
x-3033 2 3 4 6 7 9 10 11 13 14 15 0
x-3034 2 3 4 17 19 20 22 23 24 26 27 28 0
x-3035 6 7 17 19 20 29 30 32 33 34 36 0
x-3036 9 10 11 22 23 24 29 30 32 37 40 0
3033 3034 3035 3036 0
x-3037 2 3 4 6 7 9 10 11 13 14 16 0
x-3038 2 3 4 17 19 20 22 23 24 26 27 0
x-3039 6 7 17 19 20 29 30 32 33 34 35 0
x-3040 9 10 11 22 23 24 29 30 32 37 39 40 0
3037 3038 3039 3040 0
x-3041 2 3 4 6 7 9 10 12 13 16 0
x-3042 2 3 4 17 19 20 22 23 25 26 27 0
x-3043 6 7 17 19 20 29 30 31 34 35 0
x-3044 9 10 12 22 23 29 30 31 37 38 40 0
3041 3042 3043 3044 0
x-3045 2 3 4 6 7 9 10 12 13 15 16 0
x-3046 2 3 4 17 19 20 22 23 25 26 28 0
x-3047 6 7 17 19 20 29 30 31 34 35 36 0
x-3048 9 10 12 22 23 29 30 31 37 38 39 0
3045 3046 3047 3048 0
x-3049 2 3 4 6 7 9 10 12 14 15 0
x-3050 2 3 4 17 19 20 22 23 25 27 28 0
x-3051 6 7 17 19 20 29 30 31 33 36 0
x-3052 9 10 12 22 23 29 30 31 38 39 40 0
3049 3050 3051 3052 0
x-3053 2 3 4 6 7 9 10 12 14 15 16 0
x-3054 2 3 4 17 19 20 22 23 25 28 0
x-3055 6 7 17 19 20 29 30 31 33 35 36 0
x-3056 9 10 12 22 23 29 30 31 38 39 0
3053 3054 3055 3056 0
x-3057 2 3 4 6 7 9 10 12 13 14 15 0
x-3058 2 3 4 17 19 20 22 23 26 27 28 0
x-3059 6 7 17 19 20 29 30 31 33 34 36 0
x-3060 9 10 12 22 23 29 30 31 37 39 40 0
3057 3058 3059 3060 0
x-3061 2 3 4 6 7 9 10 12 13 14 16 0
x-3062 2 3 4 17 19 20 22 23 26 27 0
x-3063 6 7 17 19 20 29 30 31 33 34 35 0
x-3064 9 10 12 22 23 29 30 31 37 40 0
3061 3062 3063 3064 0
x-3065 2 3 4 6 7 8 9 12 13 16 0
x-3066 2 3 4 17 20 21 22 23 25 26 27 0
x-3067 6 7 8 17 20 29 30 31 33 34 35 0
x-3068 9 12 21 22 23 29 30 31 37 40 0
3065 3066 3067 3068 0
x-3069 2 3 4 6 7 8 9 12 13 15 16 0
x-3070 2 3 4 17 20 21 22 23 25 26 28 0
x-3071 6 7 8 17 20 29 30 31 33 34 36 0
x-3072 9 12 21 22 23 29 30 31 37 39 40 0
3069 3070 3071 3072 0
x-3073 2 3 4 6 7 8 9 12 14 15 0
x-3074 2 3 4 17 20 21 22 23 25 27 28 0
x-3075 6 7 8 17 20 29 30 31 33 35 36 0
x-3076 9 12 21 22 23 29 30 31 38 39 0
3073 3074 3075 3076 0
x-3077 2 3 4 6 7 8 9 12 14 15 16 0
x-3078 2 3 4 17 20 21 22 23 25 28 0
x-3079 6 7 8 17 20 29 30 31 33 36 0
x-3080 9 12 21 22 23 29 30 31 38 39 40 0
3077 3078 3079 3080 0
x-3081 2 3 4 6 7 8 9 12 13 14 15 0
x-3082 2 3 4 17 20 21 22 23 26 27 28 0
x-3083 6 7 8 17 20 29 30 31 34 35 36 0
x-3084 9 12 21 22 23 29 30 31 37 38 39 0
3081 3082 3083 3084 0
x-3085 2 3 4 6 7 8 9 12 13 14 16 0
x-3086 2 3 4 17 20 21 22 23 26 27 0
x-3087 6 7 8 17 20 29 30 31 34 35 0
x-3088 9 12 21 22 23 29 30 31 37 38 40 0
3085 3086 3087 3088 0
x-3089 2 3 4 6 7 8 9 11 12 13 16 0
x-3090 2 3 4 17 20 21 22 24 25 26 27 0
x-3091 6 7 8 17 20 29 30 32 33 34 35 0
x-3092 9 11 12 21 22 24 29 30 32 37 39 40 0
3089 3090 3091 3092 0
x-3093 2 3 4 6 7 8 9 11 12 13 15 16 0
x-3094 2 3 4 17 20 21 22 24 25 26 28 0
x-3095 6 7 8 17 20 29 30 32 33 34 36 0
x-3096 9 11 12 21 22 24 29 30 32 37 40 0
3093 3094 3095 3096 0
x-3097 2 3 4 6 7 8 9 11 12 14 15 0
x-3098 2 3 4 17 20 21 22 24 25 27 28 0
x-3099 6 7 8 17 20 29 30 32 33 35 36 0
x-3100 9 11 12 21 22 24 29 30 32 37 38 39 0
3097 3098 3099 3100 0
x-3101 2 3 4 6 7 8 9 11 12 14 15 16 0
x-3102 2 3 4 17 20 21 22 24 25 28 0
x-3103 6 7 8 17 20 29 30 32 33 36 0
x-3104 9 11 12 21 22 24 29 30 32 37 38 40 0
3101 3102 3103 3104 0
x-3105 2 3 4 6 7 8 9 11 12 13 14 15 0
x-3106 2 3 4 17 20 21 22 24 26 27 28 0
x-3107 6 7 8 17 20 29 30 32 34 35 36 0
x-3108 9 11 12 21 22 24 29 30 32 38 39 0
3105 3106 3107 3108 0
x-3109 2 3 4 6 7 8 9 11 12 13 14 16 0
x-3110 2 3 4 17 20 21 22 24 26 27 0
x-3111 6 7 8 17 20 29 30 32 34 35 0
x-3112 9 11 12 21 22 24 29 30 32 38 39 40 0
3109 3110 3111 3112 0
x-3113 2 3 4 6 7 8 10 11 13 16 0
x-3114 2 3 4 17 20 21 23 24 25 26 27 0
x-3115 6 7 8 17 20 29 31 32 33 34 35 0
x-3116 10 11 21 23 24 29 31 32 38 39 0
3113 3114 3115 3116 0
x-3117 2 3 4 6 7 8 10 11 13 15 16 0
x-3118 2 3 4 17 20 21 23 24 25 26 28 0
x-3119 6 7 8 17 20 29 31 32 33 34 36 0
x-3120 10 11 21 23 24 29 31 32 38 39 40 0
3117 3118 3119 3120 0
x-3121 2 3 4 6 7 8 10 11 14 15 0
x-3122 2 3 4 17 20 21 23 24 25 27 28 0
x-3123 6 7 8 17 20 29 31 32 33 35 36 0
x-3124 10 11 21 23 24 29 31 32 37 40 0
3121 3122 3123 3124 0
x-3125 2 3 4 6 7 8 10 11 14 15 16 0
x-3126 2 3 4 17 20 21 23 24 25 28 0
x-3127 6 7 8 17 20 29 31 32 33 36 0
x-3128 10 11 21 23 24 29 31 32 37 39 40 0
3125 3126 3127 3128 0
x-3129 2 3 4 6 7 8 10 11 13 14 15 0
x-3130 2 3 4 17 20 21 23 24 26 27 28 0
x-3131 6 7 8 17 20 29 31 32 34 35 36 0
x-3132 10 11 21 23 24 29 31 32 37 38 40 0
3129 3130 3131 3132 0
x-3133 2 3 4 6 7 8 10 11 13 14 16 0
x-3134 2 3 4 17 20 21 23 24 26 27 0
x-3135 6 7 8 17 20 29 31 32 34 35 0
x-3136 10 11 21 23 24 29 31 32 37 38 39 0
3133 3134 3135 3136 0
x-3137 2 3 4 6 7 8 10 11 12 13 16 0
x-3138 2 3 4 17 20 21 24 25 26 27 0
x-3139 6 7 8 17 20 29 32 33 34 35 0
x-3140 10 11 12 21 24 29 32 37 38 39 0
3137 3138 3139 3140 0
x-3141 2 3 4 6 7 8 10 11 12 13 15 16 0
x-3142 2 3 4 17 20 21 24 25 26 28 0
x-3143 6 7 8 17 20 29 32 33 34 36 0
x-3144 10 11 12 21 24 29 32 37 38 40 0
3141 3142 3143 3144 0
x-3145 2 3 4 6 7 8 10 11 12 14 15 0
x-3146 2 3 4 17 20 21 24 25 27 28 0
x-3147 6 7 8 17 20 29 32 33 35 36 0
x-3148 10 11 12 21 24 29 32 37 39 40 0
3145 3146 3147 3148 0
x-3149 2 3 4 6 7 8 10 11 12 14 15 16 0
x-3150 2 3 4 17 20 21 24 25 28 0
x-3151 6 7 8 17 20 29 32 33 36 0
x-3152 10 11 12 21 24 29 32 37 40 0
3149 3150 3151 3152 0
x-3153 2 3 4 6 7 8 10 11 12 13 14 15 0
x-3154 2 3 4 17 20 21 24 26 27 28 0
x-3155 6 7 8 17 20 29 32 34 35 36 0
x-3156 10 11 12 21 24 29 32 38 39 40 0
3153 3154 3155 3156 0
x-3157 2 3 4 6 7 8 10 11 12 13 14 16 0
x-3158 2 3 4 17 20 21 24 26 27 0
x-3159 6 7 8 17 20 29 32 34 35 0
x-3160 10 11 12 21 24 29 32 38 39 0
3157 3158 3159 3160 0
x-3161 2 3 4 6 7 8 9 10 11 13 16 0
x-3162 2 3 4 17 20 22 23 24 25 26 27 0
x-3163 6 7 8 17 20 30 31 32 33 34 35 0
x-3164 9 10 11 22 23 24 30 31 32 38 39 40 0
3161 3162 3163 3164 0
x-3165 2 3 4 6 7 8 9 10 11 13 15 16 0
x-3166 2 3 4 17 20 22 23 24 25 26 28 0
x-3167 6 7 8 17 20 30 31 32 33 34 36 0
x-3168 9 10 11 22 23 24 30 31 32 38 39 0
3165 3166 3167 3168 0
x-3169 2 3 4 6 7 8 9 10 11 14 15 0
x-3170 2 3 4 17 20 22 23 24 25 27 28 0
x-3171 6 7 8 17 20 30 31 32 33 35 36 0
x-3172 9 10 11 22 23 24 30 31 32 37 38 40 0
3169 3170 3171 3172 0
x-3173 2 3 4 6 7 8 9 10 11 14 15 16 0
x-3174 2 3 4 17 20 22 23 24 25 28 0
x-3175 6 7 8 17 20 30 31 32 33 36 0
x-3176 9 10 11 22 23 24 30 31 32 37 38 39 0
3173 3174 3175 3176 0
x-3177 2 3 4 6 7 8 9 10 11 13 14 15 0
x-3178 2 3 4 17 20 22 23 24 26 27 28 0
x-3179 6 7 8 17 20 30 31 32 34 35 36 0
x-3180 9 10 11 22 23 24 30 31 32 37 40 0
3177 3178 3179 3180 0
x-3181 2 3 4 6 7 8 9 10 11 13 14 16 0
x-3182 2 3 4 17 20 22 23 24 26 27 0
x-3183 6 7 8 17 20 30 31 32 34 35 0
x-3184 9 10 11 22 23 24 30 31 32 37 39 40 0
3181 3182 3183 3184 0
x-3185 2 3 4 6 7 8 9 10 12 13 16 0
x-3186 2 3 4 17 20 22 23 25 26 27 0
x-3187 6 7 8 17 20 30 31 33 34 35 0
x-3188 9 10 12 22 23 30 31 37 38 40 0
3185 3186 3187 3188 0
x-3189 2 3 4 6 7 8 9 10 12 13 15 16 0
x-3190 2 3 4 17 20 22 23 25 26 28 0
x-3191 6 7 8 17 20 30 31 33 34 36 0
x-3192 9 10 12 22 23 30 31 37 38 39 0
3189 3190 3191 3192 0
x-3193 2 3 4 6 7 8 9 10 12 14 15 0
x-3194 2 3 4 17 20 22 23 25 27 28 0
x-3195 6 7 8 17 20 30 31 33 35 36 0
x-3196 9 10 12 22 23 30 31 38 39 40 0
3193 3194 3195 3196 0
x-3197 2 3 4 6 7 8 9 10 12 14 15 16 0
x-3198 2 3 4 17 20 22 23 25 28 0
x-3199 6 7 8 17 20 30 31 33 36 0
x-3200 9 10 12 22 23 30 31 38 39 0
3197 3198 3199 3200 0
x-3201 2 3 4 6 7 8 9 10 12 13 14 15 0
x-3202 2 3 4 17 20 22 23 26 27 28 0
x-3203 6 7 8 17 20 30 31 34 35 36 0
x-3204 9 10 12 22 23 30 31 37 39 40 0
3201 3202 3203 3204 0
x-3205 2 3 4 6 7 8 9 10 12 13 14 16 0
x-3206 2 3 4 17 20 22 23 26 27 0
x-3207 6 7 8 17 20 30 31 34 35 0
x-3208 9 10 12 22 23 30 31 37 40 0
3205 3206 3207 3208 0
x-3209 2 3 4 5 6 7 9 12 13 16 0
x-3210 2 3 4 18 19 20 21 22 23 25 26 27 0
x-3211 5 6 7 18 19 20 30 31 32 34 35 36 0
x-3212 9 12 21 22 23 30 31 32 37 40 0
3209 3210 3211 3212 0
x-3213 2 3 4 5 6 7 9 12 13 15 16 0
x-3214 2 3 4 18 19 20 21 22 23 25 26 28 0
x-3215 5 6 7 18 19 20 30 31 32 34 35 0
x-3216 9 12 21 22 23 30 31 32 37 39 40 0
3213 3214 3215 3216 0
x-3217 2 3 4 5 6 7 9 12 14 15 0
x-3218 2 3 4 18 19 20 21 22 23 25 27 28 0
x-3219 5 6 7 18 19 20 30 31 32 33 34 36 0
x-3220 9 12 21 22 23 30 31 32 38 39 0
3217 3218 3219 3220 0
x-3221 2 3 4 5 6 7 9 12 14 15 16 0
x-3222 2 3 4 18 19 20 21 22 23 25 28 0
x-3223 5 6 7 18 19 20 30 31 32 33 34 35 0
x-3224 9 12 21 22 23 30 31 32 38 39 40 0
3221 3222 3223 3224 0
x-3225 2 3 4 5 6 7 9 12 13 14 15 0
x-3226 2 3 4 18 19 20 21 22 23 26 27 28 0
x-3227 5 6 7 18 19 20 30 31 32 33 36 0
x-3228 9 12 21 22 23 30 31 32 37 38 39 0
3225 3226 3227 3228 0
x-3229 2 3 4 5 6 7 9 12 13 14 16 0
x-3230 2 3 4 18 19 20 21 22 23 26 27 0
x-3231 5 6 7 18 19 20 30 31 32 33 35 36 0
x-3232 9 12 21 22 23 30 31 32 37 38 40 0
3229 3230 3231 3232 0
x-3233 2 3 4 5 6 7 9 11 12 13 16 0
x-3234 2 3 4 18 19 20 21 22 24 25 26 27 0
x-3235 5 6 7 18 19 20 30 31 34 35 36 0
x-3236 9 11 12 21 22 24 30 31 37 39 40 0
3233 3234 3235 3236 0
x-3237 2 3 4 5 6 7 9 11 12 13 15 16 0
x-3238 2 3 4 18 19 20 21 22 24 25 26 28 0
x-3239 5 6 7 18 19 20 30 31 34 35 0
x-3240 9 11 12 21 22 24 30 31 37 40 0
3237 3238 3239 3240 0
x-3241 2 3 4 5 6 7 9 11 12 14 15 0
x-3242 2 3 4 18 19 20 21 22 24 25 27 28 0
x-3243 5 6 7 18 19 20 30 31 33 34 36 0
x-3244 9 11 12 21 22 24 30 31 37 38 39 0
3241 3242 3243 3244 0
x-3245 2 3 4 5 6 7 9 11 12 14 15 16 0
x-3246 2 3 4 18 19 20 21 22 24 25 28 0
x-3247 5 6 7 18 19 20 30 31 33 34 35 0
x-3248 9 11 12 21 22 24 30 31 37 38 40 0
3245 3246 3247 3248 0
x-3249 2 3 4 5 6 7 9 11 12 13 14 15 0
x-3250 2 3 4 18 19 20 21 22 24 26 27 28 0
x-3251 5 6 7 18 19 20 30 31 33 36 0
x-3252 9 11 12 21 22 24 30 31 38 39 0
3249 3250 3251 3252 0
x-3253 2 3 4 5 6 7 9 11 12 13 14 16 0
x-3254 2 3 4 18 19 20 21 22 24 26 27 0
x-3255 5 6 7 18 19 20 30 31 33 35 36 0
x-3256 9 11 12 21 22 24 30 31 38 39 40 0
3253 3254 3255 3256 0
x-3257 2 3 4 5 6 7 10 11 13 16 0
x-3258 2 3 4 18 19 20 21 23 24 25 26 27 0
x-3259 5 6 7 18 19 20 29 30 32 34 35 36 0
x-3260 10 11 21 23 24 29 30 32 38 39 0
3257 3258 3259 3260 0
x-3261 2 3 4 5 6 7 10 11 13 15 16 0
x-3262 2 3 4 18 19 20 21 23 24 25 26 28 0
x-3263 5 6 7 18 19 20 29 30 32 34 35 0
x-3264 10 11 21 23 24 29 30 32 38 39 40 0
3261 3262 3263 3264 0
x-3265 2 3 4 5 6 7 10 11 14 15 0
x-3266 2 3 4 18 19 20 21 23 24 25 27 28 0
x-3267 5 6 7 18 19 20 29 30 32 33 34 36 0
x-3268 10 11 21 23 24 29 30 32 37 40 0
3265 3266 3267 3268 0
x-3269 2 3 4 5 6 7 10 11 14 15 16 0
x-3270 2 3 4 18 19 20 21 23 24 25 28 0
x-3271 5 6 7 18 19 20 29 30 32 33 34 35 0
x-3272 10 11 21 23 24 29 30 32 37 39 40 0
3269 3270 3271 3272 0
x-3273 2 3 4 5 6 7 10 11 13 14 15 0
x-3274 2 3 4 18 19 20 21 23 24 26 27 28 0
x-3275 5 6 7 18 19 20 29 30 32 33 36 0
x-3276 10 11 21 23 24 29 30 32 37 38 40 0
3273 3274 3275 3276 0
x-3277 2 3 4 5 6 7 10 11 13 14 16 0
x-3278 2 3 4 18 19 20 21 23 24 26 27 0
x-3279 5 6 7 18 19 20 29 30 32 33 35 36 0
x-3280 10 11 21 23 24 29 30 32 37 38 39 0
3277 3278 3279 3280 0
x-3281 2 3 4 5 6 7 10 11 12 13 16 0
x-3282 2 3 4 18 19 20 21 24 25 26 27 0
x-3283 5 6 7 18 19 20 29 30 31 34 35 36 0
x-3284 10 11 12 21 24 29 30 31 37 38 39 0
3281 3282 3283 3284 0
x-3285 2 3 4 5 6 7 10 11 12 13 15 16 0
x-3286 2 3 4 18 19 20 21 24 25 26 28 0
x-3287 5 6 7 18 19 20 29 30 31 34 35 0
x-3288 10 11 12 21 24 29 30 31 37 38 40 0
3285 3286 3287 3288 0
x-3289 2 3 4 5 6 7 10 11 12 14 15 0
x-3290 2 3 4 18 19 20 21 24 25 27 28 0
x-3291 5 6 7 18 19 20 29 30 31 33 34 36 0
x-3292 10 11 12 21 24 29 30 31 37 39 40 0
3289 3290 3291 3292 0
x-3293 2 3 4 5 6 7 10 11 12 14 15 16 0
x-3294 2 3 4 18 19 20 21 24 25 28 0
x-3295 5 6 7 18 19 20 29 30 31 33 34 35 0
x-3296 10 11 12 21 24 29 30 31 37 40 0
3293 3294 3295 3296 0
x-3297 2 3 4 5 6 7 10 11 12 13 14 15 0
x-3298 2 3 4 18 19 20 21 24 26 27 28 0
x-3299 5 6 7 18 19 20 29 30 31 33 36 0
x-3300 10 11 12 21 24 29 30 31 38 39 40 0
3297 3298 3299 3300 0
x-3301 2 3 4 5 6 7 10 11 12 13 14 16 0
x-3302 2 3 4 18 19 20 21 24 26 27 0
x-3303 5 6 7 18 19 20 29 30 31 33 35 36 0
x-3304 10 11 12 21 24 29 30 31 38 39 0
3301 3302 3303 3304 0
x-3305 2 3 4 5 6 7 9 10 11 13 16 0
x-3306 2 3 4 18 19 20 22 23 24 25 26 27 0
x-3307 5 6 7 18 19 20 29 32 34 35 36 0
x-3308 9 10 11 22 23 24 29 32 38 39 40 0
3305 3306 3307 3308 0
x-3309 2 3 4 5 6 7 9 10 11 13 15 16 0
x-3310 2 3 4 18 19 20 22 23 24 25 26 28 0
x-3311 5 6 7 18 19 20 29 32 34 35 0
x-3312 9 10 11 22 23 24 29 32 38 39 0
3309 3310 3311 3312 0
x-3313 2 3 4 5 6 7 9 10 11 14 15 0
x-3314 2 3 4 18 19 20 22 23 24 25 27 28 0
x-3315 5 6 7 18 19 20 29 32 33 34 36 0
x-3316 9 10 11 22 23 24 29 32 37 38 40 0
3313 3314 3315 3316 0
x-3317 2 3 4 5 6 7 9 10 11 14 15 16 0
x-3318 2 3 4 18 19 20 22 23 24 25 28 0
x-3319 5 6 7 18 19 20 29 32 33 34 35 0
x-3320 9 10 11 22 23 24 29 32 37 38 39 0
3317 3318 3319 3320 0
x-3321 2 3 4 5 6 7 9 10 11 13 14 15 0
x-3322 2 3 4 18 19 20 22 23 24 26 27 28 0
x-3323 5 6 7 18 19 20 29 32 33 36 0
x-3324 9 10 11 22 23 24 29 32 37 40 0
3321 3322 3323 3324 0
x-3325 2 3 4 5 6 7 9 10 11 13 14 16 0
x-3326 2 3 4 18 19 20 22 23 24 26 27 0
x-3327 5 6 7 18 19 20 29 32 33 35 36 0
x-3328 9 10 11 22 23 24 29 32 37 39 40 0
3325 3326 3327 3328 0
x-3329 2 3 4 5 6 7 9 10 12 13 16 0
x-3330 2 3 4 18 19 20 22 23 25 26 27 0
x-3331 5 6 7 18 19 20 29 31 32 34 35 36 0
x-3332 9 10 12 22 23 29 31 32 37 38 40 0
3329 3330 3331 3332 0
x-3333 2 3 4 5 6 7 9 10 12 13 15 16 0
x-3334 2 3 4 18 19 20 22 23 25 26 28 0
x-3335 5 6 7 18 19 20 29 31 32 34 35 0
x-3336 9 10 12 22 23 29 31 32 37 38 39 0
3333 3334 3335 3336 0
x-3337 2 3 4 5 6 7 9 10 12 14 15 0
x-3338 2 3 4 18 19 20 22 23 25 27 28 0
x-3339 5 6 7 18 19 20 29 31 32 33 34 36 0
x-3340 9 10 12 22 23 29 31 32 38 39 40 0
3337 3338 3339 3340 0
x-3341 2 3 4 5 6 7 9 10 12 14 15 16 0
x-3342 2 3 4 18 19 20 22 23 25 28 0
x-3343 5 6 7 18 19 20 29 31 32 33 34 35 0
x-3344 9 10 12 22 23 29 31 32 38 39 0
3341 3342 3343 3344 0
x-3345 2 3 4 5 6 7 9 10 12 13 14 15 0
x-3346 2 3 4 18 19 20 22 23 26 27 28 0
x-3347 5 6 7 18 19 20 29 31 32 33 36 0
x-3348 9 10 12 22 23 29 31 32 37 39 40 0
3345 3346 3347 3348 0
x-3349 2 3 4 5 6 7 9 10 12 13 14 16 0
x-3350 2 3 4 18 19 20 22 23 26 27 0
x-3351 5 6 7 18 19 20 29 31 32 33 35 36 0
x-3352 9 10 12 22 23 29 31 32 37 40 0
3349 3350 3351 3352 0
x-3353 2 3 4 5 6 8 9 12 13 16 0
x-3354 2 3 4 18 19 21 22 23 25 26 27 0
x-3355 5 6 8 18 19 29 30 32 33 34 36 0
x-3356 9 12 21 22 23 29 30 32 37 40 0
3353 3354 3355 3356 0
x-3357 2 3 4 5 6 8 9 12 13 15 16 0
x-3358 2 3 4 18 19 21 22 23 25 26 28 0
x-3359 5 6 8 18 19 29 30 32 33 34 35 0
x-3360 9 12 21 22 23 29 30 32 37 39 40 0
3357 3358 3359 3360 0
x-3361 2 3 4 5 6 8 9 12 14 15 0
x-3362 2 3 4 18 19 21 22 23 25 27 28 0
x-3363 5 6 8 18 19 29 30 32 34 35 36 0
x-3364 9 12 21 22 23 29 30 32 38 39 0
3361 3362 3363 3364 0
x-3365 2 3 4 5 6 8 9 12 14 15 16 0
x-3366 2 3 4 18 19 21 22 23 25 28 0
x-3367 5 6 8 18 19 29 30 32 34 35 0
x-3368 9 12 21 22 23 29 30 32 38 39 40 0
3365 3366 3367 3368 0
x-3369 2 3 4 5 6 8 9 12 13 14 15 0
x-3370 2 3 4 18 19 21 22 23 26 27 28 0
x-3371 5 6 8 18 19 29 30 32 33 35 36 0
x-3372 9 12 21 22 23 29 30 32 37 38 39 0
3369 3370 3371 3372 0
x-3373 2 3 4 5 6 8 9 12 13 14 16 0
x-3374 2 3 4 18 19 21 22 23 26 27 0
x-3375 5 6 8 18 19 29 30 32 33 36 0
x-3376 9 12 21 22 23 29 30 32 37 38 40 0
3373 3374 3375 3376 0
x-3377 2 3 4 5 6 8 9 11 12 13 16 0
x-3378 2 3 4 18 19 21 22 24 25 26 27 0
x-3379 5 6 8 18 19 29 30 31 33 34 36 0
x-3380 9 11 12 21 22 24 29 30 31 37 39 40 0
3377 3378 3379 3380 0
x-3381 2 3 4 5 6 8 9 11 12 13 15 16 0
x-3382 2 3 4 18 19 21 22 24 25 26 28 0
x-3383 5 6 8 18 19 29 30 31 33 34 35 0
x-3384 9 11 12 21 22 24 29 30 31 37 40 0
3381 3382 3383 3384 0
x-3385 2 3 4 5 6 8 9 11 12 14 15 0
x-3386 2 3 4 18 19 21 22 24 25 27 28 0
x-3387 5 6 8 18 19 29 30 31 34 35 36 0
x-3388 9 11 12 21 22 24 29 30 31 37 38 39 0
3385 3386 3387 3388 0
x-3389 2 3 4 5 6 8 9 11 12 14 15 16 0
x-3390 2 3 4 18 19 21 22 24 25 28 0
x-3391 5 6 8 18 19 29 30 31 34 35 0
x-3392 9 11 12 21 22 24 29 30 31 37 38 40 0
3389 3390 3391 3392 0
x-3393 2 3 4 5 6 8 9 11 12 13 14 15 0
x-3394 2 3 4 18 19 21 22 24 26 27 28 0
x-3395 5 6 8 18 19 29 30 31 33 35 36 0
x-3396 9 11 12 21 22 24 29 30 31 38 39 0
3393 3394 3395 3396 0
x-3397 2 3 4 5 6 8 9 11 12 13 14 16 0
x-3398 2 3 4 18 19 21 22 24 26 27 0
x-3399 5 6 8 18 19 29 30 31 33 36 0
x-3400 9 11 12 21 22 24 29 30 31 38 39 40 0
3397 3398 3399 3400 0
x-3401 2 3 4 5 6 8 10 11 13 16 0
x-3402 2 3 4 18 19 21 23 24 25 26 27 0
x-3403 5 6 8 18 19 30 31 32 33 34 36 0
x-3404 10 11 21 23 24 30 31 32 38 39 0
3401 3402 3403 3404 0
x-3405 2 3 4 5 6 8 10 11 13 15 16 0
x-3406 2 3 4 18 19 21 23 24 25 26 28 0
x-3407 5 6 8 18 19 30 31 32 33 34 35 0
x-3408 10 11 21 23 24 30 31 32 38 39 40 0
3405 3406 3407 3408 0
x-3409 2 3 4 5 6 8 10 11 14 15 0
x-3410 2 3 4 18 19 21 23 24 25 27 28 0
x-3411 5 6 8 18 19 30 31 32 34 35 36 0
x-3412 10 11 21 23 24 30 31 32 37 40 0
3409 3410 3411 3412 0
x-3413 2 3 4 5 6 8 10 11 14 15 16 0
x-3414 2 3 4 18 19 21 23 24 25 28 0
x-3415 5 6 8 18 19 30 31 32 34 35 0
x-3416 10 11 21 23 24 30 31 32 37 39 40 0
3413 3414 3415 3416 0
x-3417 2 3 4 5 6 8 10 11 13 14 15 0
x-3418 2 3 4 18 19 21 23 24 26 27 28 0
x-3419 5 6 8 18 19 30 31 32 33 35 36 0
x-3420 10 11 21 23 24 30 31 32 37 38 40 0
3417 3418 3419 3420 0
x-3421 2 3 4 5 6 8 10 11 13 14 16 0
x-3422 2 3 4 18 19 21 23 24 26 27 0
x-3423 5 6 8 18 19 30 31 32 33 36 0
x-3424 10 11 21 23 24 30 31 32 37 38 39 0
3421 3422 3423 3424 0
x-3425 2 3 4 5 6 8 10 11 12 13 16 0
x-3426 2 3 4 18 19 21 24 25 26 27 0
x-3427 5 6 8 18 19 30 31 33 34 36 0
x-3428 10 11 12 21 24 30 31 37 38 39 0
3425 3426 3427 3428 0
x-3429 2 3 4 5 6 8 10 11 12 13 15 16 0
x-3430 2 3 4 18 19 21 24 25 26 28 0
x-3431 5 6 8 18 19 30 31 33 34 35 0
x-3432 10 11 12 21 24 30 31 37 38 40 0
3429 3430 3431 3432 0
x-3433 2 3 4 5 6 8 10 11 12 14 15 0
x-3434 2 3 4 18 19 21 24 25 27 28 0
x-3435 5 6 8 18 19 30 31 34 35 36 0
x-3436 10 11 12 21 24 30 31 37 39 40 0
3433 3434 3435 3436 0
x-3437 2 3 4 5 6 8 10 11 12 14 15 16 0
x-3438 2 3 4 18 19 21 24 25 28 0
x-3439 5 6 8 18 19 30 31 34 35 0
x-3440 10 11 12 21 24 30 31 37 40 0
3437 3438 3439 3440 0
x-3441 2 3 4 5 6 8 10 11 12 13 14 15 0
x-3442 2 3 4 18 19 21 24 26 27 28 0
x-3443 5 6 8 18 19 30 31 33 35 36 0
x-3444 10 11 12 21 24 30 31 38 39 40 0
3441 3442 3443 3444 0
x-3445 2 3 4 5 6 8 10 11 12 13 14 16 0
x-3446 2 3 4 18 19 21 24 26 27 0
x-3447 5 6 8 18 19 30 31 33 36 0
x-3448 10 11 12 21 24 30 31 38 39 0
3445 3446 3447 3448 0
x-3449 2 3 4 5 6 8 9 10 11 13 16 0
x-3450 2 3 4 18 19 22 23 24 25 26 27 0
x-3451 5 6 8 18 19 29 31 32 33 34 36 0
x-3452 9 10 11 22 23 24 29 31 32 38 39 40 0
3449 3450 3451 3452 0
x-3453 2 3 4 5 6 8 9 10 11 13 15 16 0
x-3454 2 3 4 18 19 22 23 24 25 26 28 0
x-3455 5 6 8 18 19 29 31 32 33 34 35 0
x-3456 9 10 11 22 23 24 29 31 32 38 39 0
3453 3454 3455 3456 0
x-3457 2 3 4 5 6 8 9 10 11 14 15 0
x-3458 2 3 4 18 19 22 23 24 25 27 28 0
x-3459 5 6 8 18 19 29 31 32 34 35 36 0
x-3460 9 10 11 22 23 24 29 31 32 37 38 40 0
3457 3458 3459 3460 0
x-3461 2 3 4 5 6 8 9 10 11 14 15 16 0
x-3462 2 3 4 18 19 22 23 24 25 28 0
x-3463 5 6 8 18 19 29 31 32 34 35 0
x-3464 9 10 11 22 23 24 29 31 32 37 38 39 0
3461 3462 3463 3464 0
x-3465 2 3 4 5 6 8 9 10 11 13 14 15 0
x-3466 2 3 4 18 19 22 23 24 26 27 28 0
x-3467 5 6 8 18 19 29 31 32 33 35 36 0
x-3468 9 10 11 22 23 24 29 31 32 37 40 0
3465 3466 3467 3468 0
x-3469 2 3 4 5 6 8 9 10 11 13 14 16 0
x-3470 2 3 4 18 19 22 23 24 26 27 0
x-3471 5 6 8 18 19 29 31 32 33 36 0
x-3472 9 10 11 22 23 24 29 31 32 37 39 40 0
3469 3470 3471 3472 0
x-3473 2 3 4 5 6 8 9 10 12 13 16 0
x-3474 2 3 4 18 19 22 23 25 26 27 0
x-3475 5 6 8 18 19 29 32 33 34 36 0
x-3476 9 10 12 22 23 29 32 37 38 40 0
3473 3474 3475 3476 0
x-3477 2 3 4 5 6 8 9 10 12 13 15 16 0
x-3478 2 3 4 18 19 22 23 25 26 28 0
x-3479 5 6 8 18 19 29 32 33 34 35 0
x-3480 9 10 12 22 23 29 32 37 38 39 0
3477 3478 3479 3480 0
x-3481 2 3 4 5 6 8 9 10 12 14 15 0
x-3482 2 3 4 18 19 22 23 25 27 28 0
x-3483 5 6 8 18 19 29 32 34 35 36 0
x-3484 9 10 12 22 23 29 32 38 39 40 0
3481 3482 3483 3484 0
x-3485 2 3 4 5 6 8 9 10 12 14 15 16 0
x-3486 2 3 4 18 19 22 23 25 28 0
x-3487 5 6 8 18 19 29 32 34 35 0
x-3488 9 10 12 22 23 29 32 38 39 0
3485 3486 3487 3488 0
x-3489 2 3 4 5 6 8 9 10 12 13 14 15 0
x-3490 2 3 4 18 19 22 23 26 27 28 0
x-3491 5 6 8 18 19 29 32 33 35 36 0
x-3492 9 10 12 22 23 29 32 37 39 40 0
3489 3490 3491 3492 0
x-3493 2 3 4 5 6 8 9 10 12 13 14 16 0
x-3494 2 3 4 18 19 22 23 26 27 0
x-3495 5 6 8 18 19 29 32 33 36 0
x-3496 9 10 12 22 23 29 32 37 40 0
3493 3494 3495 3496 0
x-3497 1 2 3 5 8 9 12 13 16 0
x-3498 1 2 3 18 19 20 22 23 24 26 27 28 0
x-3499 5 8 18 19 20 29 32 33 36 0
x-3500 9 12 22 23 24 29 32 37 40 0
3497 3498 3499 3500 0
x-3501 1 2 3 5 8 9 12 13 15 16 0
x-3502 1 2 3 18 19 20 22 23 24 26 27 0
x-3503 5 8 18 19 20 29 32 33 35 36 0
x-3504 9 12 22 23 24 29 32 37 39 40 0
3501 3502 3503 3504 0
x-3505 1 2 3 5 8 9 12 14 15 0
x-3506 1 2 3 18 19 20 22 23 24 25 26 28 0
x-3507 5 8 18 19 20 29 32 34 35 0
x-3508 9 12 22 23 24 29 32 38 39 0
3505 3506 3507 3508 0
x-3509 1 2 3 5 8 9 12 14 15 16 0
x-3510 1 2 3 18 19 20 22 23 24 25 26 27 0
x-3511 5 8 18 19 20 29 32 34 35 36 0
x-3512 9 12 22 23 24 29 32 38 39 40 0
3509 3510 3511 3512 0
x-3513 1 2 3 5 8 9 12 13 14 15 0
x-3514 1 2 3 18 19 20 22 23 24 25 28 0
x-3515 5 8 18 19 20 29 32 33 34 35 0
x-3516 9 12 22 23 24 29 32 37 38 39 0
3513 3514 3515 3516 0
x-3517 1 2 3 5 8 9 12 13 14 16 0
x-3518 1 2 3 18 19 20 22 23 24 25 27 28 0
x-3519 5 8 18 19 20 29 32 33 34 36 0
x-3520 9 12 22 23 24 29 32 37 38 40 0
3517 3518 3519 3520 0
x-3521 1 2 3 5 8 9 11 12 13 16 0
x-3522 1 2 3 18 19 20 22 23 26 27 28 0
x-3523 5 8 18 19 20 29 31 32 33 36 0
x-3524 9 11 12 22 23 29 31 32 37 39 40 0
3521 3522 3523 3524 0
x-3525 1 2 3 5 8 9 11 12 13 15 16 0
x-3526 1 2 3 18 19 20 22 23 26 27 0
x-3527 5 8 18 19 20 29 31 32 33 35 36 0
x-3528 9 11 12 22 23 29 31 32 37 40 0
3525 3526 3527 3528 0
x-3529 1 2 3 5 8 9 11 12 14 15 0
x-3530 1 2 3 18 19 20 22 23 25 26 28 0
x-3531 5 8 18 19 20 29 31 32 34 35 0
x-3532 9 11 12 22 23 29 31 32 37 38 39 0
3529 3530 3531 3532 0
x-3533 1 2 3 5 8 9 11 12 14 15 16 0
x-3534 1 2 3 18 19 20 22 23 25 26 27 0
x-3535 5 8 18 19 20 29 31 32 34 35 36 0
x-3536 9 11 12 22 23 29 31 32 37 38 40 0
3533 3534 3535 3536 0
x-3537 1 2 3 5 8 9 11 12 13 14 15 0
x-3538 1 2 3 18 19 20 22 23 25 28 0
x-3539 5 8 18 19 20 29 31 32 33 34 35 0
x-3540 9 11 12 22 23 29 31 32 38 39 0
3537 3538 3539 3540 0
x-3541 1 2 3 5 8 9 11 12 13 14 16 0
x-3542 1 2 3 18 19 20 22 23 25 27 28 0
x-3543 5 8 18 19 20 29 31 32 33 34 36 0
x-3544 9 11 12 22 23 29 31 32 38 39 40 0
3541 3542 3543 3544 0
x-3545 1 2 3 5 8 10 11 13 16 0
x-3546 1 2 3 18 19 20 21 22 24 26 27 28 0
x-3547 5 8 18 19 20 30 31 33 36 0
x-3548 10 11 21 22 24 30 31 38 39 0
3545 3546 3547 3548 0
x-3549 1 2 3 5 8 10 11 13 15 16 0
x-3550 1 2 3 18 19 20 21 22 24 26 27 0
x-3551 5 8 18 19 20 30 31 33 35 36 0
x-3552 10 11 21 22 24 30 31 38 39 40 0
3549 3550 3551 3552 0
x-3553 1 2 3 5 8 10 11 14 15 0
x-3554 1 2 3 18 19 20 21 22 24 25 26 28 0
x-3555 5 8 18 19 20 30 31 34 35 0
x-3556 10 11 21 22 24 30 31 37 40 0
3553 3554 3555 3556 0
x-3557 1 2 3 5 8 10 11 14 15 16 0
x-3558 1 2 3 18 19 20 21 22 24 25 26 27 0
x-3559 5 8 18 19 20 30 31 34 35 36 0
x-3560 10 11 21 22 24 30 31 37 39 40 0
3557 3558 3559 3560 0
x-3561 1 2 3 5 8 10 11 13 14 15 0
x-3562 1 2 3 18 19 20 21 22 24 25 28 0
x-3563 5 8 18 19 20 30 31 33 34 35 0
x-3564 10 11 21 22 24 30 31 37 38 40 0
3561 3562 3563 3564 0
x-3565 1 2 3 5 8 10 11 13 14 16 0
x-3566 1 2 3 18 19 20 21 22 24 25 27 28 0
x-3567 5 8 18 19 20 30 31 33 34 36 0
x-3568 10 11 21 22 24 30 31 37 38 39 0
3565 3566 3567 3568 0
x-3569 1 2 3 5 8 10 11 12 13 16 0
x-3570 1 2 3 18 19 20 21 22 23 26 27 28 0
x-3571 5 8 18 19 20 30 31 32 33 36 0
x-3572 10 11 12 21 22 23 30 31 32 37 38 39 0
3569 3570 3571 3572 0
x-3573 1 2 3 5 8 10 11 12 13 15 16 0
x-3574 1 2 3 18 19 20 21 22 23 26 27 0
x-3575 5 8 18 19 20 30 31 32 33 35 36 0
x-3576 10 11 12 21 22 23 30 31 32 37 38 40 0
3573 3574 3575 3576 0
x-3577 1 2 3 5 8 10 11 12 14 15 0
x-3578 1 2 3 18 19 20 21 22 23 25 26 28 0
x-3579 5 8 18 19 20 30 31 32 34 35 0
x-3580 10 11 12 21 22 23 30 31 32 37 39 40 0
3577 3578 3579 3580 0
x-3581 1 2 3 5 8 10 11 12 14 15 16 0
x-3582 1 2 3 18 19 20 21 22 23 25 26 27 0
x-3583 5 8 18 19 20 30 31 32 34 35 36 0
x-3584 10 11 12 21 22 23 30 31 32 37 40 0
3581 3582 3583 3584 0
x-3585 1 2 3 5 8 10 11 12 13 14 15 0
x-3586 1 2 3 18 19 20 21 22 23 25 28 0
x-3587 5 8 18 19 20 30 31 32 33 34 35 0
x-3588 10 11 12 21 22 23 30 31 32 38 39 40 0
3585 3586 3587 3588 0
x-3589 1 2 3 5 8 10 11 12 13 14 16 0
x-3590 1 2 3 18 19 20 21 22 23 25 27 28 0
x-3591 5 8 18 19 20 30 31 32 33 34 36 0
x-3592 10 11 12 21 22 23 30 31 32 38 39 0
3589 3590 3591 3592 0
x-3593 1 2 3 5 8 9 10 11 13 16 0
x-3594 1 2 3 18 19 20 21 24 26 27 28 0
x-3595 5 8 18 19 20 29 30 31 33 36 0
x-3596 9 10 11 21 24 29 30 31 38 39 40 0
3593 3594 3595 3596 0
x-3597 1 2 3 5 8 9 10 11 13 15 16 0
x-3598 1 2 3 18 19 20 21 24 26 27 0
x-3599 5 8 18 19 20 29 30 31 33 35 36 0
x-3600 9 10 11 21 24 29 30 31 38 39 0
3597 3598 3599 3600 0
x-3601 1 2 3 5 8 9 10 11 14 15 0
x-3602 1 2 3 18 19 20 21 24 25 26 28 0
x-3603 5 8 18 19 20 29 30 31 34 35 0
x-3604 9 10 11 21 24 29 30 31 37 38 40 0
3601 3602 3603 3604 0
x-3605 1 2 3 5 8 9 10 11 14 15 16 0
x-3606 1 2 3 18 19 20 21 24 25 26 27 0
x-3607 5 8 18 19 20 29 30 31 34 35 36 0
x-3608 9 10 11 21 24 29 30 31 37 38 39 0
3605 3606 3607 3608 0
x-3609 1 2 3 5 8 9 10 11 13 14 15 0
x-3610 1 2 3 18 19 20 21 24 25 28 0
x-3611 5 8 18 19 20 29 30 31 33 34 35 0
x-3612 9 10 11 21 24 29 30 31 37 40 0
3609 3610 3611 3612 0
x-3613 1 2 3 5 8 9 10 11 13 14 16 0
x-3614 1 2 3 18 19 20 21 24 25 27 28 0
x-3615 5 8 18 19 20 29 30 31 33 34 36 0
x-3616 9 10 11 21 24 29 30 31 37 39 40 0
3613 3614 3615 3616 0
x-3617 1 2 3 5 8 9 10 12 13 16 0
x-3618 1 2 3 18 19 20 21 23 24 26 27 28 0
x-3619 5 8 18 19 20 29 30 32 33 36 0
x-3620 9 10 12 21 23 24 29 30 32 37 38 40 0
3617 3618 3619 3620 0
x-3621 1 2 3 5 8 9 10 12 13 15 16 0
x-3622 1 2 3 18 19 20 21 23 24 26 27 0
x-3623 5 8 18 19 20 29 30 32 33 35 36 0
x-3624 9 10 12 21 23 24 29 30 32 37 38 39 0
3621 3622 3623 3624 0
x-3625 1 2 3 5 8 9 10 12 14 15 0
x-3626 1 2 3 18 19 20 21 23 24 25 26 28 0
x-3627 5 8 18 19 20 29 30 32 34 35 0
x-3628 9 10 12 21 23 24 29 30 32 38 39 40 0
3625 3626 3627 3628 0
x-3629 1 2 3 5 8 9 10 12 14 15 16 0
x-3630 1 2 3 18 19 20 21 23 24 25 26 27 0
x-3631 5 8 18 19 20 29 30 32 34 35 36 0
x-3632 9 10 12 21 23 24 29 30 32 38 39 0
3629 3630 3631 3632 0
x-3633 1 2 3 5 8 9 10 12 13 14 15 0
x-3634 1 2 3 18 19 20 21 23 24 25 28 0
x-3635 5 8 18 19 20 29 30 32 33 34 35 0
x-3636 9 10 12 21 23 24 29 30 32 37 39 40 0
3633 3634 3635 3636 0
x-3637 1 2 3 5 8 9 10 12 13 14 16 0
x-3638 1 2 3 18 19 20 21 23 24 25 27 28 0
x-3639 5 8 18 19 20 29 30 32 33 34 36 0
x-3640 9 10 12 21 23 24 29 30 32 37 40 0
3637 3638 3639 3640 0
x-3641 1 2 3 5 7 8 9 12 13 16 0
x-3642 1 2 3 18 19 22 23 24 26 27 28 0
x-3643 5 7 8 18 19 29 31 32 33 35 36 0
x-3644 9 12 22 23 24 29 31 32 37 40 0
3641 3642 3643 3644 0
x-3645 1 2 3 5 7 8 9 12 13 15 16 0
x-3646 1 2 3 18 19 22 23 24 26 27 0
x-3647 5 7 8 18 19 29 31 32 33 36 0
x-3648 9 12 22 23 24 29 31 32 37 39 40 0
3645 3646 3647 3648 0
x-3649 1 2 3 5 7 8 9 12 14 15 0
x-3650 1 2 3 18 19 22 23 24 25 26 28 0
x-3651 5 7 8 18 19 29 31 32 33 34 35 0
x-3652 9 12 22 23 24 29 31 32 38 39 0
3649 3650 3651 3652 0
x-3653 1 2 3 5 7 8 9 12 14 15 16 0
x-3654 1 2 3 18 19 22 23 24 25 26 27 0
x-3655 5 7 8 18 19 29 31 32 33 34 36 0
x-3656 9 12 22 23 24 29 31 32 38 39 40 0
3653 3654 3655 3656 0
x-3657 1 2 3 5 7 8 9 12 13 14 15 0
x-3658 1 2 3 18 19 22 23 24 25 28 0
x-3659 5 7 8 18 19 29 31 32 34 35 0
x-3660 9 12 22 23 24 29 31 32 37 38 39 0
3657 3658 3659 3660 0
x-3661 1 2 3 5 7 8 9 12 13 14 16 0
x-3662 1 2 3 18 19 22 23 24 25 27 28 0
x-3663 5 7 8 18 19 29 31 32 34 35 36 0
x-3664 9 12 22 23 24 29 31 32 37 38 40 0
3661 3662 3663 3664 0
x-3665 1 2 3 5 7 8 9 11 12 13 16 0
x-3666 1 2 3 18 19 22 23 26 27 28 0
x-3667 5 7 8 18 19 29 32 33 35 36 0
x-3668 9 11 12 22 23 29 32 37 39 40 0
3665 3666 3667 3668 0
x-3669 1 2 3 5 7 8 9 11 12 13 15 16 0
x-3670 1 2 3 18 19 22 23 26 27 0
x-3671 5 7 8 18 19 29 32 33 36 0
x-3672 9 11 12 22 23 29 32 37 40 0
3669 3670 3671 3672 0
x-3673 1 2 3 5 7 8 9 11 12 14 15 0
x-3674 1 2 3 18 19 22 23 25 26 28 0
x-3675 5 7 8 18 19 29 32 33 34 35 0
x-3676 9 11 12 22 23 29 32 37 38 39 0
3673 3674 3675 3676 0
x-3677 1 2 3 5 7 8 9 11 12 14 15 16 0
x-3678 1 2 3 18 19 22 23 25 26 27 0
x-3679 5 7 8 18 19 29 32 33 34 36 0
x-3680 9 11 12 22 23 29 32 37 38 40 0
3677 3678 3679 3680 0
x-3681 1 2 3 5 7 8 9 11 12 13 14 15 0
x-3682 1 2 3 18 19 22 23 25 28 0
x-3683 5 7 8 18 19 29 32 34 35 0
x-3684 9 11 12 22 23 29 32 38 39 0
3681 3682 3683 3684 0
x-3685 1 2 3 5 7 8 9 11 12 13 14 16 0
x-3686 1 2 3 18 19 22 23 25 27 28 0
x-3687 5 7 8 18 19 29 32 34 35 36 0
x-3688 9 11 12 22 23 29 32 38 39 40 0
3685 3686 3687 3688 0
x-3689 1 2 3 5 7 8 10 11 13 16 0
x-3690 1 2 3 18 19 21 22 24 26 27 28 0
x-3691 5 7 8 18 19 29 30 31 33 35 36 0
x-3692 10 11 21 22 24 29 30 31 38 39 0
3689 3690 3691 3692 0
x-3693 1 2 3 5 7 8 10 11 13 15 16 0
x-3694 1 2 3 18 19 21 22 24 26 27 0
x-3695 5 7 8 18 19 29 30 31 33 36 0
x-3696 10 11 21 22 24 29 30 31 38 39 40 0
3693 3694 3695 3696 0
x-3697 1 2 3 5 7 8 10 11 14 15 0
x-3698 1 2 3 18 19 21 22 24 25 26 28 0
x-3699 5 7 8 18 19 29 30 31 33 34 35 0
x-3700 10 11 21 22 24 29 30 31 37 40 0
3697 3698 3699 3700 0
x-3701 1 2 3 5 7 8 10 11 14 15 16 0
x-3702 1 2 3 18 19 21 22 24 25 26 27 0
x-3703 5 7 8 18 19 29 30 31 33 34 36 0
x-3704 10 11 21 22 24 29 30 31 37 39 40 0
3701 3702 3703 3704 0
x-3705 1 2 3 5 7 8 10 11 13 14 15 0
x-3706 1 2 3 18 19 21 22 24 25 28 0
x-3707 5 7 8 18 19 29 30 31 34 35 0
x-3708 10 11 21 22 24 29 30 31 37 38 40 0
3705 3706 3707 3708 0
x-3709 1 2 3 5 7 8 10 11 13 14 16 0
x-3710 1 2 3 18 19 21 22 24 25 27 28 0
x-3711 5 7 8 18 19 29 30 31 34 35 36 0
x-3712 10 11 21 22 24 29 30 31 37 38 39 0
3709 3710 3711 3712 0
x-3713 1 2 3 5 7 8 10 11 12 13 16 0
x-3714 1 2 3 18 19 21 22 23 26 27 28 0
x-3715 5 7 8 18 19 29 30 32 33 35 36 0
x-3716 10 11 12 21 22 23 29 30 32 37 38 39 0
3713 3714 3715 3716 0
x-3717 1 2 3 5 7 8 10 11 12 13 15 16 0
x-3718 1 2 3 18 19 21 22 23 26 27 0
x-3719 5 7 8 18 19 29 30 32 33 36 0
x-3720 10 11 12 21 22 23 29 30 32 37 38 40 0
3717 3718 3719 3720 0
x-3721 1 2 3 5 7 8 10 11 12 14 15 0
x-3722 1 2 3 18 19 21 22 23 25 26 28 0
x-3723 5 7 8 18 19 29 30 32 33 34 35 0
x-3724 10 11 12 21 22 23 29 30 32 37 39 40 0
3721 3722 3723 3724 0
x-3725 1 2 3 5 7 8 10 11 12 14 15 16 0
x-3726 1 2 3 18 19 21 22 23 25 26 27 0
x-3727 5 7 8 18 19 29 30 32 33 34 36 0
x-3728 10 11 12 21 22 23 29 30 32 37 40 0
3725 3726 3727 3728 0
x-3729 1 2 3 5 7 8 10 11 12 13 14 15 0
x-3730 1 2 3 18 19 21 22 23 25 28 0
x-3731 5 7 8 18 19 29 30 32 34 35 0
x-3732 10 11 12 21 22 23 29 30 32 38 39 40 0
3729 3730 3731 3732 0
x-3733 1 2 3 5 7 8 10 11 12 13 14 16 0
x-3734 1 2 3 18 19 21 22 23 25 27 28 0
x-3735 5 7 8 18 19 29 30 32 34 35 36 0
x-3736 10 11 12 21 22 23 29 30 32 38 39 0
3733 3734 3735 3736 0
x-3737 1 2 3 5 7 8 9 10 11 13 16 0
x-3738 1 2 3 18 19 21 24 26 27 28 0
x-3739 5 7 8 18 19 30 31 33 35 36 0
x-3740 9 10 11 21 24 30 31 38 39 40 0
3737 3738 3739 3740 0
x-3741 1 2 3 5 7 8 9 10 11 13 15 16 0
x-3742 1 2 3 18 19 21 24 26 27 0
x-3743 5 7 8 18 19 30 31 33 36 0
x-3744 9 10 11 21 24 30 31 38 39 0
3741 3742 3743 3744 0
x-3745 1 2 3 5 7 8 9 10 11 14 15 0
x-3746 1 2 3 18 19 21 24 25 26 28 0
x-3747 5 7 8 18 19 30 31 33 34 35 0
x-3748 9 10 11 21 24 30 31 37 38 40 0
3745 3746 3747 3748 0
x-3749 1 2 3 5 7 8 9 10 11 14 15 16 0
x-3750 1 2 3 18 19 21 24 25 26 27 0
x-3751 5 7 8 18 19 30 31 33 34 36 0
x-3752 9 10 11 21 24 30 31 37 38 39 0
3749 3750 3751 3752 0
x-3753 1 2 3 5 7 8 9 10 11 13 14 15 0
x-3754 1 2 3 18 19 21 24 25 28 0
x-3755 5 7 8 18 19 30 31 34 35 0
x-3756 9 10 11 21 24 30 31 37 40 0
3753 3754 3755 3756 0
x-3757 1 2 3 5 7 8 9 10 11 13 14 16 0
x-3758 1 2 3 18 19 21 24 25 27 28 0
x-3759 5 7 8 18 19 30 31 34 35 36 0
x-3760 9 10 11 21 24 30 31 37 39 40 0
3757 3758 3759 3760 0
x-3761 1 2 3 5 7 8 9 10 12 13 16 0
x-3762 1 2 3 18 19 21 23 24 26 27 28 0
x-3763 5 7 8 18 19 30 31 32 33 35 36 0
x-3764 9 10 12 21 23 24 30 31 32 37 38 40 0
3761 3762 3763 3764 0
x-3765 1 2 3 5 7 8 9 10 12 13 15 16 0
x-3766 1 2 3 18 19 21 23 24 26 27 0
x-3767 5 7 8 18 19 30 31 32 33 36 0
x-3768 9 10 12 21 23 24 30 31 32 37 38 39 0
3765 3766 3767 3768 0
x-3769 1 2 3 5 7 8 9 10 12 14 15 0
x-3770 1 2 3 18 19 21 23 24 25 26 28 0
x-3771 5 7 8 18 19 30 31 32 33 34 35 0
x-3772 9 10 12 21 23 24 30 31 32 38 39 40 0
3769 3770 3771 3772 0
x-3773 1 2 3 5 7 8 9 10 12 14 15 16 0
x-3774 1 2 3 18 19 21 23 24 25 26 27 0
x-3775 5 7 8 18 19 30 31 32 33 34 36 0
x-3776 9 10 12 21 23 24 30 31 32 38 39 0
3773 3774 3775 3776 0
x-3777 1 2 3 5 7 8 9 10 12 13 14 15 0
x-3778 1 2 3 18 19 21 23 24 25 28 0
x-3779 5 7 8 18 19 30 31 32 34 35 0
x-3780 9 10 12 21 23 24 30 31 32 37 39 40 0
3777 3778 3779 3780 0
x-3781 1 2 3 5 7 8 9 10 12 13 14 16 0
x-3782 1 2 3 18 19 21 23 24 25 27 28 0
x-3783 5 7 8 18 19 30 31 32 34 35 36 0
x-3784 9 10 12 21 23 24 30 31 32 37 40 0
3781 3782 3783 3784 0
x-3785 1 2 3 6 7 9 12 13 16 0
x-3786 1 2 3 17 18 20 22 23 24 26 27 28 0
x-3787 6 7 17 18 20 30 31 34 35 0
x-3788 9 12 22 23 24 30 31 37 40 0
3785 3786 3787 3788 0
x-3789 1 2 3 6 7 9 12 13 15 16 0
x-3790 1 2 3 17 18 20 22 23 24 26 27 0
x-3791 6 7 17 18 20 30 31 34 35 36 0
x-3792 9 12 22 23 24 30 31 37 39 40 0
3789 3790 3791 3792 0
x-3793 1 2 3 6 7 9 12 14 15 0
x-3794 1 2 3 17 18 20 22 23 24 25 26 28 0
x-3795 6 7 17 18 20 30 31 33 36 0
x-3796 9 12 22 23 24 30 31 38 39 0
3793 3794 3795 3796 0
x-3797 1 2 3 6 7 9 12 14 15 16 0
x-3798 1 2 3 17 18 20 22 23 24 25 26 27 0
x-3799 6 7 17 18 20 30 31 33 35 36 0
x-3800 9 12 22 23 24 30 31 38 39 40 0
3797 3798 3799 3800 0
x-3801 1 2 3 6 7 9 12 13 14 15 0
x-3802 1 2 3 17 18 20 22 23 24 25 28 0
x-3803 6 7 17 18 20 30 31 33 34 36 0
x-3804 9 12 22 23 24 30 31 37 38 39 0
3801 3802 3803 3804 0
x-3805 1 2 3 6 7 9 12 13 14 16 0
x-3806 1 2 3 17 18 20 22 23 24 25 27 28 0
x-3807 6 7 17 18 20 30 31 33 34 35 0
x-3808 9 12 22 23 24 30 31 37 38 40 0
3805 3806 3807 3808 0
x-3809 1 2 3 6 7 9 11 12 13 16 0
x-3810 1 2 3 17 18 20 22 23 26 27 28 0
x-3811 6 7 17 18 20 30 31 32 34 35 0
x-3812 9 11 12 22 23 30 31 32 37 39 40 0
3809 3810 3811 3812 0
x-3813 1 2 3 6 7 9 11 12 13 15 16 0
x-3814 1 2 3 17 18 20 22 23 26 27 0
x-3815 6 7 17 18 20 30 31 32 34 35 36 0
x-3816 9 11 12 22 23 30 31 32 37 40 0
3813 3814 3815 3816 0
x-3817 1 2 3 6 7 9 11 12 14 15 0
x-3818 1 2 3 17 18 20 22 23 25 26 28 0
x-3819 6 7 17 18 20 30 31 32 33 36 0
x-3820 9 11 12 22 23 30 31 32 37 38 39 0
3817 3818 3819 3820 0
x-3821 1 2 3 6 7 9 11 12 14 15 16 0
x-3822 1 2 3 17 18 20 22 23 25 26 27 0
x-3823 6 7 17 18 20 30 31 32 33 35 36 0
x-3824 9 11 12 22 23 30 31 32 37 38 40 0
3821 3822 3823 3824 0
x-3825 1 2 3 6 7 9 11 12 13 14 15 0
x-3826 1 2 3 17 18 20 22 23 25 28 0
x-3827 6 7 17 18 20 30 31 32 33 34 36 0
x-3828 9 11 12 22 23 30 31 32 38 39 0
3825 3826 3827 3828 0
x-3829 1 2 3 6 7 9 11 12 13 14 16 0
x-3830 1 2 3 17 18 20 22 23 25 27 28 0
x-3831 6 7 17 18 20 30 31 32 33 34 35 0
x-3832 9 11 12 22 23 30 31 32 38 39 40 0
3829 3830 3831 3832 0
x-3833 1 2 3 6 7 10 11 13 16 0
x-3834 1 2 3 17 18 20 21 22 24 26 27 28 0
x-3835 6 7 17 18 20 29 32 34 35 0
x-3836 10 11 21 22 24 29 32 38 39 0
3833 3834 3835 3836 0
x-3837 1 2 3 6 7 10 11 13 15 16 0
x-3838 1 2 3 17 18 20 21 22 24 26 27 0
x-3839 6 7 17 18 20 29 32 34 35 36 0
x-3840 10 11 21 22 24 29 32 38 39 40 0
3837 3838 3839 3840 0
x-3841 1 2 3 6 7 10 11 14 15 0
x-3842 1 2 3 17 18 20 21 22 24 25 26 28 0
x-3843 6 7 17 18 20 29 32 33 36 0
x-3844 10 11 21 22 24 29 32 37 40 0
3841 3842 3843 3844 0
x-3845 1 2 3 6 7 10 11 14 15 16 0
x-3846 1 2 3 17 18 20 21 22 24 25 26 27 0
x-3847 6 7 17 18 20 29 32 33 35 36 0
x-3848 10 11 21 22 24 29 32 37 39 40 0
3845 3846 3847 3848 0
x-3849 1 2 3 6 7 10 11 13 14 15 0
x-3850 1 2 3 17 18 20 21 22 24 25 28 0
x-3851 6 7 17 18 20 29 32 33 34 36 0
x-3852 10 11 21 22 24 29 32 37 38 40 0
3849 3850 3851 3852 0
x-3853 1 2 3 6 7 10 11 13 14 16 0
x-3854 1 2 3 17 18 20 21 22 24 25 27 28 0
x-3855 6 7 17 18 20 29 32 33 34 35 0
x-3856 10 11 21 22 24 29 32 37 38 39 0
3853 3854 3855 3856 0
x-3857 1 2 3 6 7 10 11 12 13 16 0
x-3858 1 2 3 17 18 20 21 22 23 26 27 28 0
x-3859 6 7 17 18 20 29 31 32 34 35 0
x-3860 10 11 12 21 22 23 29 31 32 37 38 39 0
3857 3858 3859 3860 0
x-3861 1 2 3 6 7 10 11 12 13 15 16 0
x-3862 1 2 3 17 18 20 21 22 23 26 27 0
x-3863 6 7 17 18 20 29 31 32 34 35 36 0
x-3864 10 11 12 21 22 23 29 31 32 37 38 40 0
3861 3862 3863 3864 0
x-3865 1 2 3 6 7 10 11 12 14 15 0
x-3866 1 2 3 17 18 20 21 22 23 25 26 28 0
x-3867 6 7 17 18 20 29 31 32 33 36 0
x-3868 10 11 12 21 22 23 29 31 32 37 39 40 0
3865 3866 3867 3868 0
x-3869 1 2 3 6 7 10 11 12 14 15 16 0
x-3870 1 2 3 17 18 20 21 22 23 25 26 27 0
x-3871 6 7 17 18 20 29 31 32 33 35 36 0
x-3872 10 11 12 21 22 23 29 31 32 37 40 0
3869 3870 3871 3872 0
x-3873 1 2 3 6 7 10 11 12 13 14 15 0
x-3874 1 2 3 17 18 20 21 22 23 25 28 0
x-3875 6 7 17 18 20 29 31 32 33 34 36 0
x-3876 10 11 12 21 22 23 29 31 32 38 39 40 0
3873 3874 3875 3876 0
x-3877 1 2 3 6 7 10 11 12 13 14 16 0
x-3878 1 2 3 17 18 20 21 22 23 25 27 28 0
x-3879 6 7 17 18 20 29 31 32 33 34 35 0
x-3880 10 11 12 21 22 23 29 31 32 38 39 0
3877 3878 3879 3880 0
x-3881 1 2 3 6 7 9 10 11 13 16 0
x-3882 1 2 3 17 18 20 21 24 26 27 28 0
x-3883 6 7 17 18 20 29 30 32 34 35 0
x-3884 9 10 11 21 24 29 30 32 38 39 40 0
3881 3882 3883 3884 0
x-3885 1 2 3 6 7 9 10 11 13 15 16 0
x-3886 1 2 3 17 18 20 21 24 26 27 0
x-3887 6 7 17 18 20 29 30 32 34 35 36 0
x-3888 9 10 11 21 24 29 30 32 38 39 0
3885 3886 3887 3888 0
x-3889 1 2 3 6 7 9 10 11 14 15 0
x-3890 1 2 3 17 18 20 21 24 25 26 28 0
x-3891 6 7 17 18 20 29 30 32 33 36 0
x-3892 9 10 11 21 24 29 30 32 37 38 40 0
3889 3890 3891 3892 0
x-3893 1 2 3 6 7 9 10 11 14 15 16 0
x-3894 1 2 3 17 18 20 21 24 25 26 27 0
x-3895 6 7 17 18 20 29 30 32 33 35 36 0
x-3896 9 10 11 21 24 29 30 32 37 38 39 0
3893 3894 3895 3896 0
x-3897 1 2 3 6 7 9 10 11 13 14 15 0
x-3898 1 2 3 17 18 20 21 24 25 28 0
x-3899 6 7 17 18 20 29 30 32 33 34 36 0
x-3900 9 10 11 21 24 29 30 32 37 40 0
3897 3898 3899 3900 0
x-3901 1 2 3 6 7 9 10 11 13 14 16 0
x-3902 1 2 3 17 18 20 21 24 25 27 28 0
x-3903 6 7 17 18 20 29 30 32 33 34 35 0
x-3904 9 10 11 21 24 29 30 32 37 39 40 0
3901 3902 3903 3904 0
x-3905 1 2 3 6 7 9 10 12 13 16 0
x-3906 1 2 3 17 18 20 21 23 24 26 27 28 0
x-3907 6 7 17 18 20 29 30 31 34 35 0
x-3908 9 10 12 21 23 24 29 30 31 37 38 40 0
3905 3906 3907 3908 0
x-3909 1 2 3 6 7 9 10 12 13 15 16 0
x-3910 1 2 3 17 18 20 21 23 24 26 27 0
x-3911 6 7 17 18 20 29 30 31 34 35 36 0
x-3912 9 10 12 21 23 24 29 30 31 37 38 39 0
3909 3910 3911 3912 0
x-3913 1 2 3 6 7 9 10 12 14 15 0
x-3914 1 2 3 17 18 20 21 23 24 25 26 28 0
x-3915 6 7 17 18 20 29 30 31 33 36 0
x-3916 9 10 12 21 23 24 29 30 31 38 39 40 0
3913 3914 3915 3916 0
x-3917 1 2 3 6 7 9 10 12 14 15 16 0
x-3918 1 2 3 17 18 20 21 23 24 25 26 27 0
x-3919 6 7 17 18 20 29 30 31 33 35 36 0
x-3920 9 10 12 21 23 24 29 30 31 38 39 0
3917 3918 3919 3920 0
x-3921 1 2 3 6 7 9 10 12 13 14 15 0
x-3922 1 2 3 17 18 20 21 23 24 25 28 0
x-3923 6 7 17 18 20 29 30 31 33 34 36 0
x-3924 9 10 12 21 23 24 29 30 31 37 39 40 0
3921 3922 3923 3924 0
x-3925 1 2 3 6 7 9 10 12 13 14 16 0
x-3926 1 2 3 17 18 20 21 23 24 25 27 28 0
x-3927 6 7 17 18 20 29 30 31 33 34 35 0
x-3928 9 10 12 21 23 24 29 30 31 37 40 0
3925 3926 3927 3928 0
x-3929 1 2 3 6 7 8 9 12 13 16 0
x-3930 1 2 3 17 18 19 22 23 24 26 27 28 0
x-3931 6 7 8 17 18 19 29 30 31 33 34 35 0
x-3932 9 12 22 23 24 29 30 31 37 40 0
3929 3930 3931 3932 0
x-3933 1 2 3 6 7 8 9 12 13 15 16 0
x-3934 1 2 3 17 18 19 22 23 24 26 27 0
x-3935 6 7 8 17 18 19 29 30 31 33 34 36 0
x-3936 9 12 22 23 24 29 30 31 37 39 40 0
3933 3934 3935 3936 0
x-3937 1 2 3 6 7 8 9 12 14 15 0
x-3938 1 2 3 17 18 19 22 23 24 25 26 28 0
x-3939 6 7 8 17 18 19 29 30 31 33 35 36 0
x-3940 9 12 22 23 24 29 30 31 38 39 0
3937 3938 3939 3940 0
x-3941 1 2 3 6 7 8 9 12 14 15 16 0
x-3942 1 2 3 17 18 19 22 23 24 25 26 27 0
x-3943 6 7 8 17 18 19 29 30 31 33 36 0
x-3944 9 12 22 23 24 29 30 31 38 39 40 0
3941 3942 3943 3944 0
x-3945 1 2 3 6 7 8 9 12 13 14 15 0
x-3946 1 2 3 17 18 19 22 23 24 25 28 0
x-3947 6 7 8 17 18 19 29 30 31 34 35 36 0
x-3948 9 12 22 23 24 29 30 31 37 38 39 0
3945 3946 3947 3948 0
x-3949 1 2 3 6 7 8 9 12 13 14 16 0
x-3950 1 2 3 17 18 19 22 23 24 25 27 28 0
x-3951 6 7 8 17 18 19 29 30 31 34 35 0
x-3952 9 12 22 23 24 29 30 31 37 38 40 0
3949 3950 3951 3952 0
x-3953 1 2 3 6 7 8 9 11 12 13 16 0
x-3954 1 2 3 17 18 19 22 23 26 27 28 0
x-3955 6 7 8 17 18 19 29 30 32 33 34 35 0
x-3956 9 11 12 22 23 29 30 32 37 39 40 0
3953 3954 3955 3956 0
x-3957 1 2 3 6 7 8 9 11 12 13 15 16 0
x-3958 1 2 3 17 18 19 22 23 26 27 0
x-3959 6 7 8 17 18 19 29 30 32 33 34 36 0
x-3960 9 11 12 22 23 29 30 32 37 40 0
3957 3958 3959 3960 0
x-3961 1 2 3 6 7 8 9 11 12 14 15 0
x-3962 1 2 3 17 18 19 22 23 25 26 28 0
x-3963 6 7 8 17 18 19 29 30 32 33 35 36 0
x-3964 9 11 12 22 23 29 30 32 37 38 39 0
3961 3962 3963 3964 0
x-3965 1 2 3 6 7 8 9 11 12 14 15 16 0
x-3966 1 2 3 17 18 19 22 23 25 26 27 0
x-3967 6 7 8 17 18 19 29 30 32 33 36 0
x-3968 9 11 12 22 23 29 30 32 37 38 40 0
3965 3966 3967 3968 0
x-3969 1 2 3 6 7 8 9 11 12 13 14 15 0
x-3970 1 2 3 17 18 19 22 23 25 28 0
x-3971 6 7 8 17 18 19 29 30 32 34 35 36 0
x-3972 9 11 12 22 23 29 30 32 38 39 0
3969 3970 3971 3972 0
x-3973 1 2 3 6 7 8 9 11 12 13 14 16 0
x-3974 1 2 3 17 18 19 22 23 25 27 28 0
x-3975 6 7 8 17 18 19 29 30 32 34 35 0
x-3976 9 11 12 22 23 29 30 32 38 39 40 0
3973 3974 3975 3976 0
x-3977 1 2 3 6 7 8 10 11 13 16 0
x-3978 1 2 3 17 18 19 21 22 24 26 27 28 0
x-3979 6 7 8 17 18 19 29 31 32 33 34 35 0
x-3980 10 11 21 22 24 29 31 32 38 39 0
3977 3978 3979 3980 0
x-3981 1 2 3 6 7 8 10 11 13 15 16 0
x-3982 1 2 3 17 18 19 21 22 24 26 27 0
x-3983 6 7 8 17 18 19 29 31 32 33 34 36 0
x-3984 10 11 21 22 24 29 31 32 38 39 40 0
3981 3982 3983 3984 0
x-3985 1 2 3 6 7 8 10 11 14 15 0
x-3986 1 2 3 17 18 19 21 22 24 25 26 28 0
x-3987 6 7 8 17 18 19 29 31 32 33 35 36 0
x-3988 10 11 21 22 24 29 31 32 37 40 0
3985 3986 3987 3988 0
x-3989 1 2 3 6 7 8 10 11 14 15 16 0
x-3990 1 2 3 17 18 19 21 22 24 25 26 27 0
x-3991 6 7 8 17 18 19 29 31 32 33 36 0
x-3992 10 11 21 22 24 29 31 32 37 39 40 0
3989 3990 3991 3992 0
x-3993 1 2 3 6 7 8 10 11 13 14 15 0
x-3994 1 2 3 17 18 19 21 22 24 25 28 0
x-3995 6 7 8 17 18 19 29 31 32 34 35 36 0
x-3996 10 11 21 22 24 29 31 32 37 38 40 0
3993 3994 3995 3996 0
x-3997 1 2 3 6 7 8 10 11 13 14 16 0
x-3998 1 2 3 17 18 19 21 22 24 25 27 28 0
x-3999 6 7 8 17 18 19 29 31 32 34 35 0
x-4000 10 11 21 22 24 29 31 32 37 38 39 0
3997 3998 3999 4000 0
x-4001 1 2 3 6 7 8 10 11 12 13 16 0
x-4002 1 2 3 17 18 19 21 22 23 26 27 28 0
x-4003 6 7 8 17 18 19 29 32 33 34 35 0
x-4004 10 11 12 21 22 23 29 32 37 38 39 0
4001 4002 4003 4004 0
x-4005 1 2 3 6 7 8 10 11 12 13 15 16 0
x-4006 1 2 3 17 18 19 21 22 23 26 27 0
x-4007 6 7 8 17 18 19 29 32 33 34 36 0
x-4008 10 11 12 21 22 23 29 32 37 38 40 0
4005 4006 4007 4008 0
x-4009 1 2 3 6 7 8 10 11 12 14 15 0
x-4010 1 2 3 17 18 19 21 22 23 25 26 28 0
x-4011 6 7 8 17 18 19 29 32 33 35 36 0
x-4012 10 11 12 21 22 23 29 32 37 39 40 0
4009 4010 4011 4012 0
x-4013 1 2 3 6 7 8 10 11 12 14 15 16 0
x-4014 1 2 3 17 18 19 21 22 23 25 26 27 0
x-4015 6 7 8 17 18 19 29 32 33 36 0
x-4016 10 11 12 21 22 23 29 32 37 40 0
4013 4014 4015 4016 0
x-4017 1 2 3 6 7 8 10 11 12 13 14 15 0
x-4018 1 2 3 17 18 19 21 22 23 25 28 0
x-4019 6 7 8 17 18 19 29 32 34 35 36 0
x-4020 10 11 12 21 22 23 29 32 38 39 40 0
4017 4018 4019 4020 0
x-4021 1 2 3 6 7 8 10 11 12 13 14 16 0
x-4022 1 2 3 17 18 19 21 22 23 25 27 28 0
x-4023 6 7 8 17 18 19 29 32 34 35 0
x-4024 10 11 12 21 22 23 29 32 38 39 0
4021 4022 4023 4024 0
x-4025 1 2 3 6 7 8 9 10 11 13 16 0
x-4026 1 2 3 17 18 19 21 24 26 27 28 0
x-4027 6 7 8 17 18 19 30 31 32 33 34 35 0
x-4028 9 10 11 21 24 30 31 32 38 39 40 0
4025 4026 4027 4028 0
x-4029 1 2 3 6 7 8 9 10 11 13 15 16 0
x-4030 1 2 3 17 18 19 21 24 26 27 0
x-4031 6 7 8 17 18 19 30 31 32 33 34 36 0
x-4032 9 10 11 21 24 30 31 32 38 39 0
4029 4030 4031 4032 0
x-4033 1 2 3 6 7 8 9 10 11 14 15 0
x-4034 1 2 3 17 18 19 21 24 25 26 28 0
x-4035 6 7 8 17 18 19 30 31 32 33 35 36 0
x-4036 9 10 11 21 24 30 31 32 37 38 40 0
4033 4034 4035 4036 0
x-4037 1 2 3 6 7 8 9 10 11 14 15 16 0
x-4038 1 2 3 17 18 19 21 24 25 26 27 0
x-4039 6 7 8 17 18 19 30 31 32 33 36 0
x-4040 9 10 11 21 24 30 31 32 37 38 39 0
4037 4038 4039 4040 0
x-4041 1 2 3 6 7 8 9 10 11 13 14 15 0
x-4042 1 2 3 17 18 19 21 24 25 28 0
x-4043 6 7 8 17 18 19 30 31 32 34 35 36 0
x-4044 9 10 11 21 24 30 31 32 37 40 0
4041 4042 4043 4044 0
x-4045 1 2 3 6 7 8 9 10 11 13 14 16 0
x-4046 1 2 3 17 18 19 21 24 25 27 28 0
x-4047 6 7 8 17 18 19 30 31 32 34 35 0
x-4048 9 10 11 21 24 30 31 32 37 39 40 0
4045 4046 4047 4048 0
x-4049 1 2 3 6 7 8 9 10 12 13 16 0
x-4050 1 2 3 17 18 19 21 23 24 26 27 28 0
x-4051 6 7 8 17 18 19 30 31 33 34 35 0
x-4052 9 10 12 21 23 24 30 31 37 38 40 0
4049 4050 4051 4052 0
x-4053 1 2 3 6 7 8 9 10 12 13 15 16 0
x-4054 1 2 3 17 18 19 21 23 24 26 27 0
x-4055 6 7 8 17 18 19 30 31 33 34 36 0
x-4056 9 10 12 21 23 24 30 31 37 38 39 0
4053 4054 4055 4056 0
x-4057 1 2 3 6 7 8 9 10 12 14 15 0
x-4058 1 2 3 17 18 19 21 23 24 25 26 28 0
x-4059 6 7 8 17 18 19 30 31 33 35 36 0
x-4060 9 10 12 21 23 24 30 31 38 39 40 0
4057 4058 4059 4060 0
x-4061 1 2 3 6 7 8 9 10 12 14 15 16 0
x-4062 1 2 3 17 18 19 21 23 24 25 26 27 0
x-4063 6 7 8 17 18 19 30 31 33 36 0
x-4064 9 10 12 21 23 24 30 31 38 39 0
4061 4062 4063 4064 0
x-4065 1 2 3 6 7 8 9 10 12 13 14 15 0
x-4066 1 2 3 17 18 19 21 23 24 25 28 0
x-4067 6 7 8 17 18 19 30 31 34 35 36 0
x-4068 9 10 12 21 23 24 30 31 37 39 40 0
4065 4066 4067 4068 0
x-4069 1 2 3 6 7 8 9 10 12 13 14 16 0
x-4070 1 2 3 17 18 19 21 23 24 25 27 28 0
x-4071 6 7 8 17 18 19 30 31 34 35 0
x-4072 9 10 12 21 23 24 30 31 37 40 0
4069 4070 4071 4072 0
x-4073 1 2 3 5 6 7 9 12 13 16 0
x-4074 1 2 3 17 20 22 23 24 26 27 28 0
x-4075 5 6 7 17 20 30 31 32 34 35 36 0
x-4076 9 12 22 23 24 30 31 32 37 40 0
4073 4074 4075 4076 0
x-4077 1 2 3 5 6 7 9 12 13 15 16 0
x-4078 1 2 3 17 20 22 23 24 26 27 0
x-4079 5 6 7 17 20 30 31 32 34 35 0
x-4080 9 12 22 23 24 30 31 32 37 39 40 0
4077 4078 4079 4080 0
x-4081 1 2 3 5 6 7 9 12 14 15 0
x-4082 1 2 3 17 20 22 23 24 25 26 28 0
x-4083 5 6 7 17 20 30 31 32 33 34 36 0
x-4084 9 12 22 23 24 30 31 32 38 39 0
4081 4082 4083 4084 0
x-4085 1 2 3 5 6 7 9 12 14 15 16 0
x-4086 1 2 3 17 20 22 23 24 25 26 27 0
x-4087 5 6 7 17 20 30 31 32 33 34 35 0
x-4088 9 12 22 23 24 30 31 32 38 39 40 0
4085 4086 4087 4088 0
x-4089 1 2 3 5 6 7 9 12 13 14 15 0
x-4090 1 2 3 17 20 22 23 24 25 28 0
x-4091 5 6 7 17 20 30 31 32 33 36 0
x-4092 9 12 22 23 24 30 31 32 37 38 39 0
4089 4090 4091 4092 0
x-4093 1 2 3 5 6 7 9 12 13 14 16 0
x-4094 1 2 3 17 20 22 23 24 25 27 28 0
x-4095 5 6 7 17 20 30 31 32 33 35 36 0
x-4096 9 12 22 23 24 30 31 32 37 38 40 0
4093 4094 4095 4096 0
x-4097 1 2 3 5 6 7 9 11 12 13 16 0
x-4098 1 2 3 17 20 22 23 26 27 28 0
x-4099 5 6 7 17 20 30 31 34 35 36 0
x-4100 9 11 12 22 23 30 31 37 39 40 0
4097 4098 4099 4100 0
x-4101 1 2 3 5 6 7 9 11 12 13 15 16 0
x-4102 1 2 3 17 20 22 23 26 27 0
x-4103 5 6 7 17 20 30 31 34 35 0
x-4104 9 11 12 22 23 30 31 37 40 0
4101 4102 4103 4104 0
x-4105 1 2 3 5 6 7 9 11 12 14 15 0
x-4106 1 2 3 17 20 22 23 25 26 28 0
x-4107 5 6 7 17 20 30 31 33 34 36 0
x-4108 9 11 12 22 23 30 31 37 38 39 0
4105 4106 4107 4108 0
x-4109 1 2 3 5 6 7 9 11 12 14 15 16 0
x-4110 1 2 3 17 20 22 23 25 26 27 0
x-4111 5 6 7 17 20 30 31 33 34 35 0
x-4112 9 11 12 22 23 30 31 37 38 40 0
4109 4110 4111 4112 0
x-4113 1 2 3 5 6 7 9 11 12 13 14 15 0
x-4114 1 2 3 17 20 22 23 25 28 0
x-4115 5 6 7 17 20 30 31 33 36 0
x-4116 9 11 12 22 23 30 31 38 39 0
4113 4114 4115 4116 0
x-4117 1 2 3 5 6 7 9 11 12 13 14 16 0
x-4118 1 2 3 17 20 22 23 25 27 28 0
x-4119 5 6 7 17 20 30 31 33 35 36 0
x-4120 9 11 12 22 23 30 31 38 39 40 0
4117 4118 4119 4120 0
x-4121 1 2 3 5 6 7 10 11 13 16 0
x-4122 1 2 3 17 20 21 22 24 26 27 28 0
x-4123 5 6 7 17 20 29 30 32 34 35 36 0
x-4124 10 11 21 22 24 29 30 32 38 39 0
4121 4122 4123 4124 0
x-4125 1 2 3 5 6 7 10 11 13 15 16 0
x-4126 1 2 3 17 20 21 22 24 26 27 0
x-4127 5 6 7 17 20 29 30 32 34 35 0
x-4128 10 11 21 22 24 29 30 32 38 39 40 0
4125 4126 4127 4128 0
x-4129 1 2 3 5 6 7 10 11 14 15 0
x-4130 1 2 3 17 20 21 22 24 25 26 28 0
x-4131 5 6 7 17 20 29 30 32 33 34 36 0
x-4132 10 11 21 22 24 29 30 32 37 40 0
4129 4130 4131 4132 0
x-4133 1 2 3 5 6 7 10 11 14 15 16 0
x-4134 1 2 3 17 20 21 22 24 25 26 27 0
x-4135 5 6 7 17 20 29 30 32 33 34 35 0
x-4136 10 11 21 22 24 29 30 32 37 39 40 0
4133 4134 4135 4136 0
x-4137 1 2 3 5 6 7 10 11 13 14 15 0
x-4138 1 2 3 17 20 21 22 24 25 28 0
x-4139 5 6 7 17 20 29 30 32 33 36 0
x-4140 10 11 21 22 24 29 30 32 37 38 40 0
4137 4138 4139 4140 0
x-4141 1 2 3 5 6 7 10 11 13 14 16 0
x-4142 1 2 3 17 20 21 22 24 25 27 28 0
x-4143 5 6 7 17 20 29 30 32 33 35 36 0
x-4144 10 11 21 22 24 29 30 32 37 38 39 0
4141 4142 4143 4144 0
x-4145 1 2 3 5 6 7 10 11 12 13 16 0
x-4146 1 2 3 17 20 21 22 23 26 27 28 0
x-4147 5 6 7 17 20 29 30 31 34 35 36 0
x-4148 10 11 12 21 22 23 29 30 31 37 38 39 0
4145 4146 4147 4148 0
x-4149 1 2 3 5 6 7 10 11 12 13 15 16 0
x-4150 1 2 3 17 20 21 22 23 26 27 0
x-4151 5 6 7 17 20 29 30 31 34 35 0
x-4152 10 11 12 21 22 23 29 30 31 37 38 40 0
4149 4150 4151 4152 0
x-4153 1 2 3 5 6 7 10 11 12 14 15 0
x-4154 1 2 3 17 20 21 22 23 25 26 28 0
x-4155 5 6 7 17 20 29 30 31 33 34 36 0
x-4156 10 11 12 21 22 23 29 30 31 37 39 40 0
4153 4154 4155 4156 0
x-4157 1 2 3 5 6 7 10 11 12 14 15 16 0
x-4158 1 2 3 17 20 21 22 23 25 26 27 0
x-4159 5 6 7 17 20 29 30 31 33 34 35 0
x-4160 10 11 12 21 22 23 29 30 31 37 40 0
4157 4158 4159 4160 0
x-4161 1 2 3 5 6 7 10 11 12 13 14 15 0
x-4162 1 2 3 17 20 21 22 23 25 28 0
x-4163 5 6 7 17 20 29 30 31 33 36 0
x-4164 10 11 12 21 22 23 29 30 31 38 39 40 0
4161 4162 4163 4164 0
x-4165 1 2 3 5 6 7 10 11 12 13 14 16 0
x-4166 1 2 3 17 20 21 22 23 25 27 28 0
x-4167 5 6 7 17 20 29 30 31 33 35 36 0
x-4168 10 11 12 21 22 23 29 30 31 38 39 0
4165 4166 4167 4168 0
x-4169 1 2 3 5 6 7 9 10 11 13 16 0
x-4170 1 2 3 17 20 21 24 26 27 28 0
x-4171 5 6 7 17 20 29 32 34 35 36 0
x-4172 9 10 11 21 24 29 32 38 39 40 0
4169 4170 4171 4172 0
x-4173 1 2 3 5 6 7 9 10 11 13 15 16 0
x-4174 1 2 3 17 20 21 24 26 27 0
x-4175 5 6 7 17 20 29 32 34 35 0
x-4176 9 10 11 21 24 29 32 38 39 0
4173 4174 4175 4176 0
x-4177 1 2 3 5 6 7 9 10 11 14 15 0
x-4178 1 2 3 17 20 21 24 25 26 28 0
x-4179 5 6 7 17 20 29 32 33 34 36 0
x-4180 9 10 11 21 24 29 32 37 38 40 0
4177 4178 4179 4180 0
x-4181 1 2 3 5 6 7 9 10 11 14 15 16 0
x-4182 1 2 3 17 20 21 24 25 26 27 0
x-4183 5 6 7 17 20 29 32 33 34 35 0
x-4184 9 10 11 21 24 29 32 37 38 39 0
4181 4182 4183 4184 0
x-4185 1 2 3 5 6 7 9 10 11 13 14 15 0
x-4186 1 2 3 17 20 21 24 25 28 0
x-4187 5 6 7 17 20 29 32 33 36 0
x-4188 9 10 11 21 24 29 32 37 40 0
4185 4186 4187 4188 0
x-4189 1 2 3 5 6 7 9 10 11 13 14 16 0
x-4190 1 2 3 17 20 21 24 25 27 28 0
x-4191 5 6 7 17 20 29 32 33 35 36 0
x-4192 9 10 11 21 24 29 32 37 39 40 0
4189 4190 4191 4192 0
x-4193 1 2 3 5 6 7 9 10 12 13 16 0
x-4194 1 2 3 17 20 21 23 24 26 27 28 0
x-4195 5 6 7 17 20 29 31 32 34 35 36 0
x-4196 9 10 12 21 23 24 29 31 32 37 38 40 0
4193 4194 4195 4196 0
x-4197 1 2 3 5 6 7 9 10 12 13 15 16 0
x-4198 1 2 3 17 20 21 23 24 26 27 0
x-4199 5 6 7 17 20 29 31 32 34 35 0
x-4200 9 10 12 21 23 24 29 31 32 37 38 39 0
4197 4198 4199 4200 0
x-4201 1 2 3 5 6 7 9 10 12 14 15 0
x-4202 1 2 3 17 20 21 23 24 25 26 28 0
x-4203 5 6 7 17 20 29 31 32 33 34 36 0
x-4204 9 10 12 21 23 24 29 31 32 38 39 40 0
4201 4202 4203 4204 0
x-4205 1 2 3 5 6 7 9 10 12 14 15 16 0
x-4206 1 2 3 17 20 21 23 24 25 26 27 0
x-4207 5 6 7 17 20 29 31 32 33 34 35 0
x-4208 9 10 12 21 23 24 29 31 32 38 39 0
4205 4206 4207 4208 0
x-4209 1 2 3 5 6 7 9 10 12 13 14 15 0
x-4210 1 2 3 17 20 21 23 24 25 28 0
x-4211 5 6 7 17 20 29 31 32 33 36 0
x-4212 9 10 12 21 23 24 29 31 32 37 39 40 0
4209 4210 4211 4212 0
x-4213 1 2 3 5 6 7 9 10 12 13 14 16 0
x-4214 1 2 3 17 20 21 23 24 25 27 28 0
x-4215 5 6 7 17 20 29 31 32 33 35 36 0
x-4216 9 10 12 21 23 24 29 31 32 37 40 0
4213 4214 4215 4216 0
x-4217 1 2 3 5 6 8 9 12 13 16 0
x-4218 1 2 3 17 19 20 22 23 24 26 27 28 0
x-4219 5 6 8 17 19 20 29 30 32 33 34 36 0
x-4220 9 12 22 23 24 29 30 32 37 40 0
4217 4218 4219 4220 0
x-4221 1 2 3 5 6 8 9 12 13 15 16 0
x-4222 1 2 3 17 19 20 22 23 24 26 27 0
x-4223 5 6 8 17 19 20 29 30 32 33 34 35 0
x-4224 9 12 22 23 24 29 30 32 37 39 40 0
4221 4222 4223 4224 0
x-4225 1 2 3 5 6 8 9 12 14 15 0
x-4226 1 2 3 17 19 20 22 23 24 25 26 28 0
x-4227 5 6 8 17 19 20 29 30 32 34 35 36 0
x-4228 9 12 22 23 24 29 30 32 38 39 0
4225 4226 4227 4228 0
x-4229 1 2 3 5 6 8 9 12 14 15 16 0
x-4230 1 2 3 17 19 20 22 23 24 25 26 27 0
x-4231 5 6 8 17 19 20 29 30 32 34 35 0
x-4232 9 12 22 23 24 29 30 32 38 39 40 0
4229 4230 4231 4232 0
x-4233 1 2 3 5 6 8 9 12 13 14 15 0
x-4234 1 2 3 17 19 20 22 23 24 25 28 0
x-4235 5 6 8 17 19 20 29 30 32 33 35 36 0
x-4236 9 12 22 23 24 29 30 32 37 38 39 0
4233 4234 4235 4236 0
x-4237 1 2 3 5 6 8 9 12 13 14 16 0
x-4238 1 2 3 17 19 20 22 23 24 25 27 28 0
x-4239 5 6 8 17 19 20 29 30 32 33 36 0
x-4240 9 12 22 23 24 29 30 32 37 38 40 0
4237 4238 4239 4240 0
x-4241 1 2 3 5 6 8 9 11 12 13 16 0
x-4242 1 2 3 17 19 20 22 23 26 27 28 0
x-4243 5 6 8 17 19 20 29 30 31 33 34 36 0
x-4244 9 11 12 22 23 29 30 31 37 39 40 0
4241 4242 4243 4244 0
x-4245 1 2 3 5 6 8 9 11 12 13 15 16 0
x-4246 1 2 3 17 19 20 22 23 26 27 0
x-4247 5 6 8 17 19 20 29 30 31 33 34 35 0
x-4248 9 11 12 22 23 29 30 31 37 40 0
4245 4246 4247 4248 0
x-4249 1 2 3 5 6 8 9 11 12 14 15 0
x-4250 1 2 3 17 19 20 22 23 25 26 28 0
x-4251 5 6 8 17 19 20 29 30 31 34 35 36 0
x-4252 9 11 12 22 23 29 30 31 37 38 39 0
4249 4250 4251 4252 0
x-4253 1 2 3 5 6 8 9 11 12 14 15 16 0
x-4254 1 2 3 17 19 20 22 23 25 26 27 0
x-4255 5 6 8 17 19 20 29 30 31 34 35 0
x-4256 9 11 12 22 23 29 30 31 37 38 40 0
4253 4254 4255 4256 0
x-4257 1 2 3 5 6 8 9 11 12 13 14 15 0
x-4258 1 2 3 17 19 20 22 23 25 28 0
x-4259 5 6 8 17 19 20 29 30 31 33 35 36 0
x-4260 9 11 12 22 23 29 30 31 38 39 0
4257 4258 4259 4260 0
x-4261 1 2 3 5 6 8 9 11 12 13 14 16 0
x-4262 1 2 3 17 19 20 22 23 25 27 28 0
x-4263 5 6 8 17 19 20 29 30 31 33 36 0
x-4264 9 11 12 22 23 29 30 31 38 39 40 0
4261 4262 4263 4264 0
x-4265 1 2 3 5 6 8 10 11 13 16 0
x-4266 1 2 3 17 19 20 21 22 24 26 27 28 0
x-4267 5 6 8 17 19 20 30 31 32 33 34 36 0
x-4268 10 11 21 22 24 30 31 32 38 39 0
4265 4266 4267 4268 0
x-4269 1 2 3 5 6 8 10 11 13 15 16 0
x-4270 1 2 3 17 19 20 21 22 24 26 27 0
x-4271 5 6 8 17 19 20 30 31 32 33 34 35 0
x-4272 10 11 21 22 24 30 31 32 38 39 40 0
4269 4270 4271 4272 0
x-4273 1 2 3 5 6 8 10 11 14 15 0
x-4274 1 2 3 17 19 20 21 22 24 25 26 28 0
x-4275 5 6 8 17 19 20 30 31 32 34 35 36 0
x-4276 10 11 21 22 24 30 31 32 37 40 0
4273 4274 4275 4276 0
x-4277 1 2 3 5 6 8 10 11 14 15 16 0
x-4278 1 2 3 17 19 20 21 22 24 25 26 27 0
x-4279 5 6 8 17 19 20 30 31 32 34 35 0
x-4280 10 11 21 22 24 30 31 32 37 39 40 0
4277 4278 4279 4280 0
x-4281 1 2 3 5 6 8 10 11 13 14 15 0
x-4282 1 2 3 17 19 20 21 22 24 25 28 0
x-4283 5 6 8 17 19 20 30 31 32 33 35 36 0
x-4284 10 11 21 22 24 30 31 32 37 38 40 0
4281 4282 4283 4284 0
x-4285 1 2 3 5 6 8 10 11 13 14 16 0
x-4286 1 2 3 17 19 20 21 22 24 25 27 28 0
x-4287 5 6 8 17 19 20 30 31 32 33 36 0
x-4288 10 11 21 22 24 30 31 32 37 38 39 0
4285 4286 4287 4288 0
x-4289 1 2 3 5 6 8 10 11 12 13 16 0
x-4290 1 2 3 17 19 20 21 22 23 26 27 28 0
x-4291 5 6 8 17 19 20 30 31 33 34 36 0
x-4292 10 11 12 21 22 23 30 31 37 38 39 0
4289 4290 4291 4292 0
x-4293 1 2 3 5 6 8 10 11 12 13 15 16 0
x-4294 1 2 3 17 19 20 21 22 23 26 27 0
x-4295 5 6 8 17 19 20 30 31 33 34 35 0
x-4296 10 11 12 21 22 23 30 31 37 38 40 0
4293 4294 4295 4296 0
x-4297 1 2 3 5 6 8 10 11 12 14 15 0
x-4298 1 2 3 17 19 20 21 22 23 25 26 28 0
x-4299 5 6 8 17 19 20 30 31 34 35 36 0
x-4300 10 11 12 21 22 23 30 31 37 39 40 0
4297 4298 4299 4300 0
x-4301 1 2 3 5 6 8 10 11 12 14 15 16 0
x-4302 1 2 3 17 19 20 21 22 23 25 26 27 0
x-4303 5 6 8 17 19 20 30 31 34 35 0
x-4304 10 11 12 21 22 23 30 31 37 40 0
4301 4302 4303 4304 0
x-4305 1 2 3 5 6 8 10 11 12 13 14 15 0
x-4306 1 2 3 17 19 20 21 22 23 25 28 0
x-4307 5 6 8 17 19 20 30 31 33 35 36 0
x-4308 10 11 12 21 22 23 30 31 38 39 40 0
4305 4306 4307 4308 0
x-4309 1 2 3 5 6 8 10 11 12 13 14 16 0
x-4310 1 2 3 17 19 20 21 22 23 25 27 28 0
x-4311 5 6 8 17 19 20 30 31 33 36 0
x-4312 10 11 12 21 22 23 30 31 38 39 0
4309 4310 4311 4312 0
x-4313 1 2 3 5 6 8 9 10 11 13 16 0
x-4314 1 2 3 17 19 20 21 24 26 27 28 0
x-4315 5 6 8 17 19 20 29 31 32 33 34 36 0
x-4316 9 10 11 21 24 29 31 32 38 39 40 0
4313 4314 4315 4316 0
x-4317 1 2 3 5 6 8 9 10 11 13 15 16 0
x-4318 1 2 3 17 19 20 21 24 26 27 0
x-4319 5 6 8 17 19 20 29 31 32 33 34 35 0
x-4320 9 10 11 21 24 29 31 32 38 39 0
4317 4318 4319 4320 0
x-4321 1 2 3 5 6 8 9 10 11 14 15 0
x-4322 1 2 3 17 19 20 21 24 25 26 28 0
x-4323 5 6 8 17 19 20 29 31 32 34 35 36 0
x-4324 9 10 11 21 24 29 31 32 37 38 40 0
4321 4322 4323 4324 0
x-4325 1 2 3 5 6 8 9 10 11 14 15 16 0
x-4326 1 2 3 17 19 20 21 24 25 26 27 0
x-4327 5 6 8 17 19 20 29 31 32 34 35 0
x-4328 9 10 11 21 24 29 31 32 37 38 39 0
4325 4326 4327 4328 0
x-4329 1 2 3 5 6 8 9 10 11 13 14 15 0
x-4330 1 2 3 17 19 20 21 24 25 28 0
x-4331 5 6 8 17 19 20 29 31 32 33 35 36 0
x-4332 9 10 11 21 24 29 31 32 37 40 0
4329 4330 4331 4332 0
x-4333 1 2 3 5 6 8 9 10 11 13 14 16 0
x-4334 1 2 3 17 19 20 21 24 25 27 28 0
x-4335 5 6 8 17 19 20 29 31 32 33 36 0
x-4336 9 10 11 21 24 29 31 32 37 39 40 0
4333 4334 4335 4336 0
x-4337 1 2 3 5 6 8 9 10 12 13 16 0
x-4338 1 2 3 17 19 20 21 23 24 26 27 28 0
x-4339 5 6 8 17 19 20 29 32 33 34 36 0
x-4340 9 10 12 21 23 24 29 32 37 38 40 0
4337 4338 4339 4340 0
x-4341 1 2 3 5 6 8 9 10 12 13 15 16 0
x-4342 1 2 3 17 19 20 21 23 24 26 27 0
x-4343 5 6 8 17 19 20 29 32 33 34 35 0
x-4344 9 10 12 21 23 24 29 32 37 38 39 0
4341 4342 4343 4344 0
x-4345 1 2 3 5 6 8 9 10 12 14 15 0
x-4346 1 2 3 17 19 20 21 23 24 25 26 28 0
x-4347 5 6 8 17 19 20 29 32 34 35 36 0
x-4348 9 10 12 21 23 24 29 32 38 39 40 0
4345 4346 4347 4348 0
x-4349 1 2 3 5 6 8 9 10 12 14 15 16 0
x-4350 1 2 3 17 19 20 21 23 24 25 26 27 0
x-4351 5 6 8 17 19 20 29 32 34 35 0
x-4352 9 10 12 21 23 24 29 32 38 39 0
4349 4350 4351 4352 0
x-4353 1 2 3 5 6 8 9 10 12 13 14 15 0
x-4354 1 2 3 17 19 20 21 23 24 25 28 0
x-4355 5 6 8 17 19 20 29 32 33 35 36 0
x-4356 9 10 12 21 23 24 29 32 37 39 40 0
4353 4354 4355 4356 0
x-4357 1 2 3 5 6 8 9 10 12 13 14 16 0
x-4358 1 2 3 17 19 20 21 23 24 25 27 28 0
x-4359 5 6 8 17 19 20 29 32 33 36 0
x-4360 9 10 12 21 23 24 29 32 37 40 0
4357 4358 4359 4360 0
x-4361 1 2 4 5 8 9 12 13 16 0
x-4362 1 2 4 17 18 20 21 22 24 25 26 28 0
x-4363 5 8 17 18 20 29 32 33 36 0
x-4364 9 12 21 22 24 29 32 37 40 0
4361 4362 4363 4364 0
x-4365 1 2 4 5 8 9 12 13 15 16 0
x-4366 1 2 4 17 18 20 21 22 24 25 26 27 0
x-4367 5 8 17 18 20 29 32 33 35 36 0
x-4368 9 12 21 22 24 29 32 37 39 40 0
4365 4366 4367 4368 0
x-4369 1 2 4 5 8 9 12 14 15 0
x-4370 1 2 4 17 18 20 21 22 24 26 27 28 0
x-4371 5 8 17 18 20 29 32 34 35 0
x-4372 9 12 21 22 24 29 32 38 39 0
4369 4370 4371 4372 0
x-4373 1 2 4 5 8 9 12 14 15 16 0
x-4374 1 2 4 17 18 20 21 22 24 26 27 0
x-4375 5 8 17 18 20 29 32 34 35 36 0
x-4376 9 12 21 22 24 29 32 38 39 40 0
4373 4374 4375 4376 0
x-4377 1 2 4 5 8 9 12 13 14 15 0
x-4378 1 2 4 17 18 20 21 22 24 25 27 28 0
x-4379 5 8 17 18 20 29 32 33 34 35 0
x-4380 9 12 21 22 24 29 32 37 38 39 0
4377 4378 4379 4380 0
x-4381 1 2 4 5 8 9 12 13 14 16 0
x-4382 1 2 4 17 18 20 21 22 24 25 28 0
x-4383 5 8 17 18 20 29 32 33 34 36 0
x-4384 9 12 21 22 24 29 32 37 38 40 0
4381 4382 4383 4384 0
x-4385 1 2 4 5 8 9 11 12 13 16 0
x-4386 1 2 4 17 18 20 21 22 23 25 26 28 0
x-4387 5 8 17 18 20 29 31 32 33 36 0
x-4388 9 11 12 21 22 23 29 31 32 37 39 40 0
4385 4386 4387 4388 0
x-4389 1 2 4 5 8 9 11 12 13 15 16 0
x-4390 1 2 4 17 18 20 21 22 23 25 26 27 0
x-4391 5 8 17 18 20 29 31 32 33 35 36 0
x-4392 9 11 12 21 22 23 29 31 32 37 40 0
4389 4390 4391 4392 0
x-4393 1 2 4 5 8 9 11 12 14 15 0
x-4394 1 2 4 17 18 20 21 22 23 26 27 28 0
x-4395 5 8 17 18 20 29 31 32 34 35 0
x-4396 9 11 12 21 22 23 29 31 32 37 38 39 0
4393 4394 4395 4396 0
x-4397 1 2 4 5 8 9 11 12 14 15 16 0
x-4398 1 2 4 17 18 20 21 22 23 26 27 0
x-4399 5 8 17 18 20 29 31 32 34 35 36 0
x-4400 9 11 12 21 22 23 29 31 32 37 38 40 0
4397 4398 4399 4400 0
x-4401 1 2 4 5 8 9 11 12 13 14 15 0
x-4402 1 2 4 17 18 20 21 22 23 25 27 28 0
x-4403 5 8 17 18 20 29 31 32 33 34 35 0
x-4404 9 11 12 21 22 23 29 31 32 38 39 0
4401 4402 4403 4404 0
x-4405 1 2 4 5 8 9 11 12 13 14 16 0
x-4406 1 2 4 17 18 20 21 22 23 25 28 0
x-4407 5 8 17 18 20 29 31 32 33 34 36 0
x-4408 9 11 12 21 22 23 29 31 32 38 39 40 0
4405 4406 4407 4408 0
x-4409 1 2 4 5 8 10 11 13 16 0
x-4410 1 2 4 17 18 20 22 23 24 25 26 28 0
x-4411 5 8 17 18 20 30 31 33 36 0
x-4412 10 11 22 23 24 30 31 38 39 0
4409 4410 4411 4412 0
x-4413 1 2 4 5 8 10 11 13 15 16 0
x-4414 1 2 4 17 18 20 22 23 24 25 26 27 0
x-4415 5 8 17 18 20 30 31 33 35 36 0
x-4416 10 11 22 23 24 30 31 38 39 40 0
4413 4414 4415 4416 0
x-4417 1 2 4 5 8 10 11 14 15 0
x-4418 1 2 4 17 18 20 22 23 24 26 27 28 0
x-4419 5 8 17 18 20 30 31 34 35 0
x-4420 10 11 22 23 24 30 31 37 40 0
4417 4418 4419 4420 0
x-4421 1 2 4 5 8 10 11 14 15 16 0
x-4422 1 2 4 17 18 20 22 23 24 26 27 0
x-4423 5 8 17 18 20 30 31 34 35 36 0
x-4424 10 11 22 23 24 30 31 37 39 40 0
4421 4422 4423 4424 0
x-4425 1 2 4 5 8 10 11 13 14 15 0
x-4426 1 2 4 17 18 20 22 23 24 25 27 28 0
x-4427 5 8 17 18 20 30 31 33 34 35 0
x-4428 10 11 22 23 24 30 31 37 38 40 0
4425 4426 4427 4428 0
x-4429 1 2 4 5 8 10 11 13 14 16 0
x-4430 1 2 4 17 18 20 22 23 24 25 28 0
x-4431 5 8 17 18 20 30 31 33 34 36 0
x-4432 10 11 22 23 24 30 31 37 38 39 0
4429 4430 4431 4432 0
x-4433 1 2 4 5 8 10 11 12 13 16 0
x-4434 1 2 4 17 18 20 22 23 25 26 28 0
x-4435 5 8 17 18 20 30 31 32 33 36 0
x-4436 10 11 12 22 23 30 31 32 37 38 39 0
4433 4434 4435 4436 0
x-4437 1 2 4 5 8 10 11 12 13 15 16 0
x-4438 1 2 4 17 18 20 22 23 25 26 27 0
x-4439 5 8 17 18 20 30 31 32 33 35 36 0
x-4440 10 11 12 22 23 30 31 32 37 38 40 0
4437 4438 4439 4440 0
x-4441 1 2 4 5 8 10 11 12 14 15 0
x-4442 1 2 4 17 18 20 22 23 26 27 28 0
x-4443 5 8 17 18 20 30 31 32 34 35 0
x-4444 10 11 12 22 23 30 31 32 37 39 40 0
4441 4442 4443 4444 0
x-4445 1 2 4 5 8 10 11 12 14 15 16 0
x-4446 1 2 4 17 18 20 22 23 26 27 0
x-4447 5 8 17 18 20 30 31 32 34 35 36 0
x-4448 10 11 12 22 23 30 31 32 37 40 0
4445 4446 4447 4448 0
x-4449 1 2 4 5 8 10 11 12 13 14 15 0
x-4450 1 2 4 17 18 20 22 23 25 27 28 0
x-4451 5 8 17 18 20 30 31 32 33 34 35 0
x-4452 10 11 12 22 23 30 31 32 38 39 40 0
4449 4450 4451 4452 0
x-4453 1 2 4 5 8 10 11 12 13 14 16 0
x-4454 1 2 4 17 18 20 22 23 25 28 0
x-4455 5 8 17 18 20 30 31 32 33 34 36 0
x-4456 10 11 12 22 23 30 31 32 38 39 0
4453 4454 4455 4456 0
x-4457 1 2 4 5 8 9 10 11 13 16 0
x-4458 1 2 4 17 18 20 21 23 24 25 26 28 0
x-4459 5 8 17 18 20 29 30 31 33 36 0
x-4460 9 10 11 21 23 24 29 30 31 38 39 40 0
4457 4458 4459 4460 0
x-4461 1 2 4 5 8 9 10 11 13 15 16 0
x-4462 1 2 4 17 18 20 21 23 24 25 26 27 0
x-4463 5 8 17 18 20 29 30 31 33 35 36 0
x-4464 9 10 11 21 23 24 29 30 31 38 39 0
4461 4462 4463 4464 0
x-4465 1 2 4 5 8 9 10 11 14 15 0
x-4466 1 2 4 17 18 20 21 23 24 26 27 28 0
x-4467 5 8 17 18 20 29 30 31 34 35 0
x-4468 9 10 11 21 23 24 29 30 31 37 38 40 0
4465 4466 4467 4468 0
x-4469 1 2 4 5 8 9 10 11 14 15 16 0
x-4470 1 2 4 17 18 20 21 23 24 26 27 0
x-4471 5 8 17 18 20 29 30 31 34 35 36 0
x-4472 9 10 11 21 23 24 29 30 31 37 38 39 0
4469 4470 4471 4472 0
x-4473 1 2 4 5 8 9 10 11 13 14 15 0
x-4474 1 2 4 17 18 20 21 23 24 25 27 28 0
x-4475 5 8 17 18 20 29 30 31 33 34 35 0
x-4476 9 10 11 21 23 24 29 30 31 37 40 0
4473 4474 4475 4476 0
x-4477 1 2 4 5 8 9 10 11 13 14 16 0
x-4478 1 2 4 17 18 20 21 23 24 25 28 0
x-4479 5 8 17 18 20 29 30 31 33 34 36 0
x-4480 9 10 11 21 23 24 29 30 31 37 39 40 0
4477 4478 4479 4480 0
x-4481 1 2 4 5 8 9 10 12 13 16 0
x-4482 1 2 4 17 18 20 21 24 25 26 28 0
x-4483 5 8 17 18 20 29 30 32 33 36 0
x-4484 9 10 12 21 24 29 30 32 37 38 40 0
4481 4482 4483 4484 0
x-4485 1 2 4 5 8 9 10 12 13 15 16 0
x-4486 1 2 4 17 18 20 21 24 25 26 27 0
x-4487 5 8 17 18 20 29 30 32 33 35 36 0
x-4488 9 10 12 21 24 29 30 32 37 38 39 0
4485 4486 4487 4488 0
x-4489 1 2 4 5 8 9 10 12 14 15 0
x-4490 1 2 4 17 18 20 21 24 26 27 28 0
x-4491 5 8 17 18 20 29 30 32 34 35 0
x-4492 9 10 12 21 24 29 30 32 38 39 40 0
4489 4490 4491 4492 0
x-4493 1 2 4 5 8 9 10 12 14 15 16 0
x-4494 1 2 4 17 18 20 21 24 26 27 0
x-4495 5 8 17 18 20 29 30 32 34 35 36 0
x-4496 9 10 12 21 24 29 30 32 38 39 0
4493 4494 4495 4496 0
x-4497 1 2 4 5 8 9 10 12 13 14 15 0
x-4498 1 2 4 17 18 20 21 24 25 27 28 0
x-4499 5 8 17 18 20 29 30 32 33 34 35 0
x-4500 9 10 12 21 24 29 30 32 37 39 40 0
4497 4498 4499 4500 0
x-4501 1 2 4 5 8 9 10 12 13 14 16 0
x-4502 1 2 4 17 18 20 21 24 25 28 0
x-4503 5 8 17 18 20 29 30 32 33 34 36 0
x-4504 9 10 12 21 24 29 30 32 37 40 0
4501 4502 4503 4504 0
x-4505 1 2 4 5 7 8 9 12 13 16 0
x-4506 1 2 4 17 18 19 21 22 24 25 26 28 0
x-4507 5 7 8 17 18 19 29 31 32 33 35 36 0
x-4508 9 12 21 22 24 29 31 32 37 40 0
4505 4506 4507 4508 0
x-4509 1 2 4 5 7 8 9 12 13 15 16 0
x-4510 1 2 4 17 18 19 21 22 24 25 26 27 0
x-4511 5 7 8 17 18 19 29 31 32 33 36 0
x-4512 9 12 21 22 24 29 31 32 37 39 40 0
4509 4510 4511 4512 0
x-4513 1 2 4 5 7 8 9 12 14 15 0
x-4514 1 2 4 17 18 19 21 22 24 26 27 28 0
x-4515 5 7 8 17 18 19 29 31 32 33 34 35 0
x-4516 9 12 21 22 24 29 31 32 38 39 0
4513 4514 4515 4516 0
x-4517 1 2 4 5 7 8 9 12 14 15 16 0
x-4518 1 2 4 17 18 19 21 22 24 26 27 0
x-4519 5 7 8 17 18 19 29 31 32 33 34 36 0
x-4520 9 12 21 22 24 29 31 32 38 39 40 0
4517 4518 4519 4520 0
x-4521 1 2 4 5 7 8 9 12 13 14 15 0
x-4522 1 2 4 17 18 19 21 22 24 25 27 28 0
x-4523 5 7 8 17 18 19 29 31 32 34 35 0
x-4524 9 12 21 22 24 29 31 32 37 38 39 0
4521 4522 4523 4524 0
x-4525 1 2 4 5 7 8 9 12 13 14 16 0
x-4526 1 2 4 17 18 19 21 22 24 25 28 0
x-4527 5 7 8 17 18 19 29 31 32 34 35 36 0
x-4528 9 12 21 22 24 29 31 32 37 38 40 0
4525 4526 4527 4528 0
x-4529 1 2 4 5 7 8 9 11 12 13 16 0
x-4530 1 2 4 17 18 19 21 22 23 25 26 28 0
x-4531 5 7 8 17 18 19 29 32 33 35 36 0
x-4532 9 11 12 21 22 23 29 32 37 39 40 0
4529 4530 4531 4532 0
x-4533 1 2 4 5 7 8 9 11 12 13 15 16 0
x-4534 1 2 4 17 18 19 21 22 23 25 26 27 0
x-4535 5 7 8 17 18 19 29 32 33 36 0
x-4536 9 11 12 21 22 23 29 32 37 40 0
4533 4534 4535 4536 0
x-4537 1 2 4 5 7 8 9 11 12 14 15 0
x-4538 1 2 4 17 18 19 21 22 23 26 27 28 0
x-4539 5 7 8 17 18 19 29 32 33 34 35 0
x-4540 9 11 12 21 22 23 29 32 37 38 39 0
4537 4538 4539 4540 0
x-4541 1 2 4 5 7 8 9 11 12 14 15 16 0
x-4542 1 2 4 17 18 19 21 22 23 26 27 0
x-4543 5 7 8 17 18 19 29 32 33 34 36 0
x-4544 9 11 12 21 22 23 29 32 37 38 40 0
4541 4542 4543 4544 0
x-4545 1 2 4 5 7 8 9 11 12 13 14 15 0
x-4546 1 2 4 17 18 19 21 22 23 25 27 28 0
x-4547 5 7 8 17 18 19 29 32 34 35 0
x-4548 9 11 12 21 22 23 29 32 38 39 0
4545 4546 4547 4548 0
x-4549 1 2 4 5 7 8 9 11 12 13 14 16 0
x-4550 1 2 4 17 18 19 21 22 23 25 28 0
x-4551 5 7 8 17 18 19 29 32 34 35 36 0
x-4552 9 11 12 21 22 23 29 32 38 39 40 0
4549 4550 4551 4552 0
x-4553 1 2 4 5 7 8 10 11 13 16 0
x-4554 1 2 4 17 18 19 22 23 24 25 26 28 0
x-4555 5 7 8 17 18 19 29 30 31 33 35 36 0
x-4556 10 11 22 23 24 29 30 31 38 39 0
4553 4554 4555 4556 0
x-4557 1 2 4 5 7 8 10 11 13 15 16 0
x-4558 1 2 4 17 18 19 22 23 24 25 26 27 0
x-4559 5 7 8 17 18 19 29 30 31 33 36 0
x-4560 10 11 22 23 24 29 30 31 38 39 40 0
4557 4558 4559 4560 0
x-4561 1 2 4 5 7 8 10 11 14 15 0
x-4562 1 2 4 17 18 19 22 23 24 26 27 28 0
x-4563 5 7 8 17 18 19 29 30 31 33 34 35 0
x-4564 10 11 22 23 24 29 30 31 37 40 0
4561 4562 4563 4564 0
x-4565 1 2 4 5 7 8 10 11 14 15 16 0
x-4566 1 2 4 17 18 19 22 23 24 26 27 0
x-4567 5 7 8 17 18 19 29 30 31 33 34 36 0
x-4568 10 11 22 23 24 29 30 31 37 39 40 0
4565 4566 4567 4568 0
x-4569 1 2 4 5 7 8 10 11 13 14 15 0
x-4570 1 2 4 17 18 19 22 23 24 25 27 28 0
x-4571 5 7 8 17 18 19 29 30 31 34 35 0
x-4572 10 11 22 23 24 29 30 31 37 38 40 0
4569 4570 4571 4572 0
x-4573 1 2 4 5 7 8 10 11 13 14 16 0
x-4574 1 2 4 17 18 19 22 23 24 25 28 0
x-4575 5 7 8 17 18 19 29 30 31 34 35 36 0
x-4576 10 11 22 23 24 29 30 31 37 38 39 0
4573 4574 4575 4576 0
x-4577 1 2 4 5 7 8 10 11 12 13 16 0
x-4578 1 2 4 17 18 19 22 23 25 26 28 0
x-4579 5 7 8 17 18 19 29 30 32 33 35 36 0
x-4580 10 11 12 22 23 29 30 32 37 38 39 0
4577 4578 4579 4580 0
x-4581 1 2 4 5 7 8 10 11 12 13 15 16 0
x-4582 1 2 4 17 18 19 22 23 25 26 27 0
x-4583 5 7 8 17 18 19 29 30 32 33 36 0
x-4584 10 11 12 22 23 29 30 32 37 38 40 0
4581 4582 4583 4584 0
x-4585 1 2 4 5 7 8 10 11 12 14 15 0
x-4586 1 2 4 17 18 19 22 23 26 27 28 0
x-4587 5 7 8 17 18 19 29 30 32 33 34 35 0
x-4588 10 11 12 22 23 29 30 32 37 39 40 0
4585 4586 4587 4588 0
x-4589 1 2 4 5 7 8 10 11 12 14 15 16 0
x-4590 1 2 4 17 18 19 22 23 26 27 0
x-4591 5 7 8 17 18 19 29 30 32 33 34 36 0
x-4592 10 11 12 22 23 29 30 32 37 40 0
4589 4590 4591 4592 0
x-4593 1 2 4 5 7 8 10 11 12 13 14 15 0
x-4594 1 2 4 17 18 19 22 23 25 27 28 0
x-4595 5 7 8 17 18 19 29 30 32 34 35 0
x-4596 10 11 12 22 23 29 30 32 38 39 40 0
4593 4594 4595 4596 0
x-4597 1 2 4 5 7 8 10 11 12 13 14 16 0
x-4598 1 2 4 17 18 19 22 23 25 28 0
x-4599 5 7 8 17 18 19 29 30 32 34 35 36 0
x-4600 10 11 12 22 23 29 30 32 38 39 0
4597 4598 4599 4600 0
x-4601 1 2 4 5 7 8 9 10 11 13 16 0
x-4602 1 2 4 17 18 19 21 23 24 25 26 28 0
x-4603 5 7 8 17 18 19 30 31 33 35 36 0
x-4604 9 10 11 21 23 24 30 31 38 39 40 0
4601 4602 4603 4604 0
x-4605 1 2 4 5 7 8 9 10 11 13 15 16 0
x-4606 1 2 4 17 18 19 21 23 24 25 26 27 0
x-4607 5 7 8 17 18 19 30 31 33 36 0
x-4608 9 10 11 21 23 24 30 31 38 39 0
4605 4606 4607 4608 0
x-4609 1 2 4 5 7 8 9 10 11 14 15 0
x-4610 1 2 4 17 18 19 21 23 24 26 27 28 0
x-4611 5 7 8 17 18 19 30 31 33 34 35 0
x-4612 9 10 11 21 23 24 30 31 37 38 40 0
4609 4610 4611 4612 0
x-4613 1 2 4 5 7 8 9 10 11 14 15 16 0
x-4614 1 2 4 17 18 19 21 23 24 26 27 0
x-4615 5 7 8 17 18 19 30 31 33 34 36 0
x-4616 9 10 11 21 23 24 30 31 37 38 39 0
4613 4614 4615 4616 0
x-4617 1 2 4 5 7 8 9 10 11 13 14 15 0
x-4618 1 2 4 17 18 19 21 23 24 25 27 28 0
x-4619 5 7 8 17 18 19 30 31 34 35 0
x-4620 9 10 11 21 23 24 30 31 37 40 0
4617 4618 4619 4620 0
x-4621 1 2 4 5 7 8 9 10 11 13 14 16 0
x-4622 1 2 4 17 18 19 21 23 24 25 28 0
x-4623 5 7 8 17 18 19 30 31 34 35 36 0
x-4624 9 10 11 21 23 24 30 31 37 39 40 0
4621 4622 4623 4624 0
x-4625 1 2 4 5 7 8 9 10 12 13 16 0
x-4626 1 2 4 17 18 19 21 24 25 26 28 0
x-4627 5 7 8 17 18 19 30 31 32 33 35 36 0
x-4628 9 10 12 21 24 30 31 32 37 38 40 0
4625 4626 4627 4628 0
x-4629 1 2 4 5 7 8 9 10 12 13 15 16 0
x-4630 1 2 4 17 18 19 21 24 25 26 27 0
x-4631 5 7 8 17 18 19 30 31 32 33 36 0
x-4632 9 10 12 21 24 30 31 32 37 38 39 0
4629 4630 4631 4632 0
x-4633 1 2 4 5 7 8 9 10 12 14 15 0
x-4634 1 2 4 17 18 19 21 24 26 27 28 0
x-4635 5 7 8 17 18 19 30 31 32 33 34 35 0
x-4636 9 10 12 21 24 30 31 32 38 39 40 0
4633 4634 4635 4636 0
x-4637 1 2 4 5 7 8 9 10 12 14 15 16 0
x-4638 1 2 4 17 18 19 21 24 26 27 0
x-4639 5 7 8 17 18 19 30 31 32 33 34 36 0
x-4640 9 10 12 21 24 30 31 32 38 39 0
4637 4638 4639 4640 0
x-4641 1 2 4 5 7 8 9 10 12 13 14 15 0
x-4642 1 2 4 17 18 19 21 24 25 27 28 0
x-4643 5 7 8 17 18 19 30 31 32 34 35 0
x-4644 9 10 12 21 24 30 31 32 37 39 40 0
4641 4642 4643 4644 0
x-4645 1 2 4 5 7 8 9 10 12 13 14 16 0
x-4646 1 2 4 17 18 19 21 24 25 28 0
x-4647 5 7 8 17 18 19 30 31 32 34 35 36 0
x-4648 9 10 12 21 24 30 31 32 37 40 0
4645 4646 4647 4648 0
x-4649 1 2 4 6 7 9 12 13 16 0
x-4650 1 2 4 18 19 20 21 22 24 25 26 28 0
x-4651 6 7 18 19 20 30 31 34 35 0
x-4652 9 12 21 22 24 30 31 37 40 0
4649 4650 4651 4652 0
x-4653 1 2 4 6 7 9 12 13 15 16 0
x-4654 1 2 4 18 19 20 21 22 24 25 26 27 0
x-4655 6 7 18 19 20 30 31 34 35 36 0
x-4656 9 12 21 22 24 30 31 37 39 40 0
4653 4654 4655 4656 0
x-4657 1 2 4 6 7 9 12 14 15 0
x-4658 1 2 4 18 19 20 21 22 24 26 27 28 0
x-4659 6 7 18 19 20 30 31 33 36 0
x-4660 9 12 21 22 24 30 31 38 39 0
4657 4658 4659 4660 0
x-4661 1 2 4 6 7 9 12 14 15 16 0
x-4662 1 2 4 18 19 20 21 22 24 26 27 0
x-4663 6 7 18 19 20 30 31 33 35 36 0
x-4664 9 12 21 22 24 30 31 38 39 40 0
4661 4662 4663 4664 0
x-4665 1 2 4 6 7 9 12 13 14 15 0
x-4666 1 2 4 18 19 20 21 22 24 25 27 28 0
x-4667 6 7 18 19 20 30 31 33 34 36 0
x-4668 9 12 21 22 24 30 31 37 38 39 0
4665 4666 4667 4668 0
x-4669 1 2 4 6 7 9 12 13 14 16 0
x-4670 1 2 4 18 19 20 21 22 24 25 28 0
x-4671 6 7 18 19 20 30 31 33 34 35 0
x-4672 9 12 21 22 24 30 31 37 38 40 0
4669 4670 4671 4672 0
x-4673 1 2 4 6 7 9 11 12 13 16 0
x-4674 1 2 4 18 19 20 21 22 23 25 26 28 0
x-4675 6 7 18 19 20 30 31 32 34 35 0
x-4676 9 11 12 21 22 23 30 31 32 37 39 40 0
4673 4674 4675 4676 0
x-4677 1 2 4 6 7 9 11 12 13 15 16 0
x-4678 1 2 4 18 19 20 21 22 23 25 26 27 0
x-4679 6 7 18 19 20 30 31 32 34 35 36 0
x-4680 9 11 12 21 22 23 30 31 32 37 40 0
4677 4678 4679 4680 0
x-4681 1 2 4 6 7 9 11 12 14 15 0
x-4682 1 2 4 18 19 20 21 22 23 26 27 28 0
x-4683 6 7 18 19 20 30 31 32 33 36 0
x-4684 9 11 12 21 22 23 30 31 32 37 38 39 0
4681 4682 4683 4684 0
x-4685 1 2 4 6 7 9 11 12 14 15 16 0
x-4686 1 2 4 18 19 20 21 22 23 26 27 0
x-4687 6 7 18 19 20 30 31 32 33 35 36 0
x-4688 9 11 12 21 22 23 30 31 32 37 38 40 0
4685 4686 4687 4688 0
x-4689 1 2 4 6 7 9 11 12 13 14 15 0
x-4690 1 2 4 18 19 20 21 22 23 25 27 28 0
x-4691 6 7 18 19 20 30 31 32 33 34 36 0
x-4692 9 11 12 21 22 23 30 31 32 38 39 0
4689 4690 4691 4692 0
x-4693 1 2 4 6 7 9 11 12 13 14 16 0
x-4694 1 2 4 18 19 20 21 22 23 25 28 0
x-4695 6 7 18 19 20 30 31 32 33 34 35 0
x-4696 9 11 12 21 22 23 30 31 32 38 39 40 0
4693 4694 4695 4696 0
x-4697 1 2 4 6 7 10 11 13 16 0
x-4698 1 2 4 18 19 20 22 23 24 25 26 28 0
x-4699 6 7 18 19 20 29 32 34 35 0
x-4700 10 11 22 23 24 29 32 38 39 0
4697 4698 4699 4700 0
x-4701 1 2 4 6 7 10 11 13 15 16 0
x-4702 1 2 4 18 19 20 22 23 24 25 26 27 0
x-4703 6 7 18 19 20 29 32 34 35 36 0
x-4704 10 11 22 23 24 29 32 38 39 40 0
4701 4702 4703 4704 0
x-4705 1 2 4 6 7 10 11 14 15 0
x-4706 1 2 4 18 19 20 22 23 24 26 27 28 0
x-4707 6 7 18 19 20 29 32 33 36 0
x-4708 10 11 22 23 24 29 32 37 40 0
4705 4706 4707 4708 0
x-4709 1 2 4 6 7 10 11 14 15 16 0
x-4710 1 2 4 18 19 20 22 23 24 26 27 0
x-4711 6 7 18 19 20 29 32 33 35 36 0
x-4712 10 11 22 23 24 29 32 37 39 40 0
4709 4710 4711 4712 0
x-4713 1 2 4 6 7 10 11 13 14 15 0
x-4714 1 2 4 18 19 20 22 23 24 25 27 28 0
x-4715 6 7 18 19 20 29 32 33 34 36 0
x-4716 10 11 22 23 24 29 32 37 38 40 0
4713 4714 4715 4716 0
x-4717 1 2 4 6 7 10 11 13 14 16 0
x-4718 1 2 4 18 19 20 22 23 24 25 28 0
x-4719 6 7 18 19 20 29 32 33 34 35 0
x-4720 10 11 22 23 24 29 32 37 38 39 0
4717 4718 4719 4720 0
x-4721 1 2 4 6 7 10 11 12 13 16 0
x-4722 1 2 4 18 19 20 22 23 25 26 28 0
x-4723 6 7 18 19 20 29 31 32 34 35 0
x-4724 10 11 12 22 23 29 31 32 37 38 39 0
4721 4722 4723 4724 0
x-4725 1 2 4 6 7 10 11 12 13 15 16 0
x-4726 1 2 4 18 19 20 22 23 25 26 27 0
x-4727 6 7 18 19 20 29 31 32 34 35 36 0
x-4728 10 11 12 22 23 29 31 32 37 38 40 0
4725 4726 4727 4728 0
x-4729 1 2 4 6 7 10 11 12 14 15 0
x-4730 1 2 4 18 19 20 22 23 26 27 28 0
x-4731 6 7 18 19 20 29 31 32 33 36 0
x-4732 10 11 12 22 23 29 31 32 37 39 40 0
4729 4730 4731 4732 0
x-4733 1 2 4 6 7 10 11 12 14 15 16 0
x-4734 1 2 4 18 19 20 22 23 26 27 0
x-4735 6 7 18 19 20 29 31 32 33 35 36 0
x-4736 10 11 12 22 23 29 31 32 37 40 0
4733 4734 4735 4736 0
x-4737 1 2 4 6 7 10 11 12 13 14 15 0
x-4738 1 2 4 18 19 20 22 23 25 27 28 0
x-4739 6 7 18 19 20 29 31 32 33 34 36 0
x-4740 10 11 12 22 23 29 31 32 38 39 40 0
4737 4738 4739 4740 0
x-4741 1 2 4 6 7 10 11 12 13 14 16 0
x-4742 1 2 4 18 19 20 22 23 25 28 0
x-4743 6 7 18 19 20 29 31 32 33 34 35 0
x-4744 10 11 12 22 23 29 31 32 38 39 0
4741 4742 4743 4744 0
x-4745 1 2 4 6 7 9 10 11 13 16 0
x-4746 1 2 4 18 19 20 21 23 24 25 26 28 0
x-4747 6 7 18 19 20 29 30 32 34 35 0
x-4748 9 10 11 21 23 24 29 30 32 38 39 40 0
4745 4746 4747 4748 0
x-4749 1 2 4 6 7 9 10 11 13 15 16 0
x-4750 1 2 4 18 19 20 21 23 24 25 26 27 0
x-4751 6 7 18 19 20 29 30 32 34 35 36 0
x-4752 9 10 11 21 23 24 29 30 32 38 39 0
4749 4750 4751 4752 0
x-4753 1 2 4 6 7 9 10 11 14 15 0
x-4754 1 2 4 18 19 20 21 23 24 26 27 28 0
x-4755 6 7 18 19 20 29 30 32 33 36 0
x-4756 9 10 11 21 23 24 29 30 32 37 38 40 0
4753 4754 4755 4756 0
x-4757 1 2 4 6 7 9 10 11 14 15 16 0
x-4758 1 2 4 18 19 20 21 23 24 26 27 0
x-4759 6 7 18 19 20 29 30 32 33 35 36 0
x-4760 9 10 11 21 23 24 29 30 32 37 38 39 0
4757 4758 4759 4760 0
x-4761 1 2 4 6 7 9 10 11 13 14 15 0
x-4762 1 2 4 18 19 20 21 23 24 25 27 28 0
x-4763 6 7 18 19 20 29 30 32 33 34 36 0
x-4764 9 10 11 21 23 24 29 30 32 37 40 0
4761 4762 4763 4764 0
x-4765 1 2 4 6 7 9 10 11 13 14 16 0
x-4766 1 2 4 18 19 20 21 23 24 25 28 0
x-4767 6 7 18 19 20 29 30 32 33 34 35 0
x-4768 9 10 11 21 23 24 29 30 32 37 39 40 0
4765 4766 4767 4768 0
x-4769 1 2 4 6 7 9 10 12 13 16 0
x-4770 1 2 4 18 19 20 21 24 25 26 28 0
x-4771 6 7 18 19 20 29 30 31 34 35 0
x-4772 9 10 12 21 24 29 30 31 37 38 40 0
4769 4770 4771 4772 0
x-4773 1 2 4 6 7 9 10 12 13 15 16 0
x-4774 1 2 4 18 19 20 21 24 25 26 27 0
x-4775 6 7 18 19 20 29 30 31 34 35 36 0
x-4776 9 10 12 21 24 29 30 31 37 38 39 0
4773 4774 4775 4776 0
x-4777 1 2 4 6 7 9 10 12 14 15 0
x-4778 1 2 4 18 19 20 21 24 26 27 28 0
x-4779 6 7 18 19 20 29 30 31 33 36 0
x-4780 9 10 12 21 24 29 30 31 38 39 40 0
4777 4778 4779 4780 0
x-4781 1 2 4 6 7 9 10 12 14 15 16 0
x-4782 1 2 4 18 19 20 21 24 26 27 0
x-4783 6 7 18 19 20 29 30 31 33 35 36 0
x-4784 9 10 12 21 24 29 30 31 38 39 0
4781 4782 4783 4784 0
x-4785 1 2 4 6 7 9 10 12 13 14 15 0
x-4786 1 2 4 18 19 20 21 24 25 27 28 0
x-4787 6 7 18 19 20 29 30 31 33 34 36 0
x-4788 9 10 12 21 24 29 30 31 37 39 40 0
4785 4786 4787 4788 0
x-4789 1 2 4 6 7 9 10 12 13 14 16 0
x-4790 1 2 4 18 19 20 21 24 25 28 0
x-4791 6 7 18 19 20 29 30 31 33 34 35 0
x-4792 9 10 12 21 24 29 30 31 37 40 0
4789 4790 4791 4792 0
x-4793 1 2 4 6 7 8 9 12 13 16 0
x-4794 1 2 4 18 19 21 22 24 25 26 28 0
x-4795 6 7 8 18 19 29 30 31 33 34 35 0
x-4796 9 12 21 22 24 29 30 31 37 40 0
4793 4794 4795 4796 0
x-4797 1 2 4 6 7 8 9 12 13 15 16 0
x-4798 1 2 4 18 19 21 22 24 25 26 27 0
x-4799 6 7 8 18 19 29 30 31 33 34 36 0
x-4800 9 12 21 22 24 29 30 31 37 39 40 0
4797 4798 4799 4800 0
x-4801 1 2 4 6 7 8 9 12 14 15 0
x-4802 1 2 4 18 19 21 22 24 26 27 28 0
x-4803 6 7 8 18 19 29 30 31 33 35 36 0
x-4804 9 12 21 22 24 29 30 31 38 39 0
4801 4802 4803 4804 0
x-4805 1 2 4 6 7 8 9 12 14 15 16 0
x-4806 1 2 4 18 19 21 22 24 26 27 0
x-4807 6 7 8 18 19 29 30 31 33 36 0
x-4808 9 12 21 22 24 29 30 31 38 39 40 0
4805 4806 4807 4808 0
x-4809 1 2 4 6 7 8 9 12 13 14 15 0
x-4810 1 2 4 18 19 21 22 24 25 27 28 0
x-4811 6 7 8 18 19 29 30 31 34 35 36 0
x-4812 9 12 21 22 24 29 30 31 37 38 39 0
4809 4810 4811 4812 0
x-4813 1 2 4 6 7 8 9 12 13 14 16 0
x-4814 1 2 4 18 19 21 22 24 25 28 0
x-4815 6 7 8 18 19 29 30 31 34 35 0
x-4816 9 12 21 22 24 29 30 31 37 38 40 0
4813 4814 4815 4816 0
x-4817 1 2 4 6 7 8 9 11 12 13 16 0
x-4818 1 2 4 18 19 21 22 23 25 26 28 0
x-4819 6 7 8 18 19 29 30 32 33 34 35 0
x-4820 9 11 12 21 22 23 29 30 32 37 39 40 0
4817 4818 4819 4820 0
x-4821 1 2 4 6 7 8 9 11 12 13 15 16 0
x-4822 1 2 4 18 19 21 22 23 25 26 27 0
x-4823 6 7 8 18 19 29 30 32 33 34 36 0
x-4824 9 11 12 21 22 23 29 30 32 37 40 0
4821 4822 4823 4824 0
x-4825 1 2 4 6 7 8 9 11 12 14 15 0
x-4826 1 2 4 18 19 21 22 23 26 27 28 0
x-4827 6 7 8 18 19 29 30 32 33 35 36 0
x-4828 9 11 12 21 22 23 29 30 32 37 38 39 0
4825 4826 4827 4828 0
x-4829 1 2 4 6 7 8 9 11 12 14 15 16 0
x-4830 1 2 4 18 19 21 22 23 26 27 0
x-4831 6 7 8 18 19 29 30 32 33 36 0
x-4832 9 11 12 21 22 23 29 30 32 37 38 40 0
4829 4830 4831 4832 0
x-4833 1 2 4 6 7 8 9 11 12 13 14 15 0
x-4834 1 2 4 18 19 21 22 23 25 27 28 0
x-4835 6 7 8 18 19 29 30 32 34 35 36 0
x-4836 9 11 12 21 22 23 29 30 32 38 39 0
4833 4834 4835 4836 0
x-4837 1 2 4 6 7 8 9 11 12 13 14 16 0
x-4838 1 2 4 18 19 21 22 23 25 28 0
x-4839 6 7 8 18 19 29 30 32 34 35 0
x-4840 9 11 12 21 22 23 29 30 32 38 39 40 0
4837 4838 4839 4840 0
x-4841 1 2 4 6 7 8 10 11 13 16 0
x-4842 1 2 4 18 19 22 23 24 25 26 28 0
x-4843 6 7 8 18 19 29 31 32 33 34 35 0
x-4844 10 11 22 23 24 29 31 32 38 39 0
4841 4842 4843 4844 0
x-4845 1 2 4 6 7 8 10 11 13 15 16 0
x-4846 1 2 4 18 19 22 23 24 25 26 27 0
x-4847 6 7 8 18 19 29 31 32 33 34 36 0
x-4848 10 11 22 23 24 29 31 32 38 39 40 0
4845 4846 4847 4848 0
x-4849 1 2 4 6 7 8 10 11 14 15 0
x-4850 1 2 4 18 19 22 23 24 26 27 28 0
x-4851 6 7 8 18 19 29 31 32 33 35 36 0
x-4852 10 11 22 23 24 29 31 32 37 40 0
4849 4850 4851 4852 0
x-4853 1 2 4 6 7 8 10 11 14 15 16 0
x-4854 1 2 4 18 19 22 23 24 26 27 0
x-4855 6 7 8 18 19 29 31 32 33 36 0
x-4856 10 11 22 23 24 29 31 32 37 39 40 0
4853 4854 4855 4856 0
x-4857 1 2 4 6 7 8 10 11 13 14 15 0
x-4858 1 2 4 18 19 22 23 24 25 27 28 0
x-4859 6 7 8 18 19 29 31 32 34 35 36 0
x-4860 10 11 22 23 24 29 31 32 37 38 40 0
4857 4858 4859 4860 0
x-4861 1 2 4 6 7 8 10 11 13 14 16 0
x-4862 1 2 4 18 19 22 23 24 25 28 0
x-4863 6 7 8 18 19 29 31 32 34 35 0
x-4864 10 11 22 23 24 29 31 32 37 38 39 0
4861 4862 4863 4864 0
x-4865 1 2 4 6 7 8 10 11 12 13 16 0
x-4866 1 2 4 18 19 22 23 25 26 28 0
x-4867 6 7 8 18 19 29 32 33 34 35 0
x-4868 10 11 12 22 23 29 32 37 38 39 0
4865 4866 4867 4868 0
x-4869 1 2 4 6 7 8 10 11 12 13 15 16 0
x-4870 1 2 4 18 19 22 23 25 26 27 0
x-4871 6 7 8 18 19 29 32 33 34 36 0
x-4872 10 11 12 22 23 29 32 37 38 40 0
4869 4870 4871 4872 0
x-4873 1 2 4 6 7 8 10 11 12 14 15 0
x-4874 1 2 4 18 19 22 23 26 27 28 0
x-4875 6 7 8 18 19 29 32 33 35 36 0
x-4876 10 11 12 22 23 29 32 37 39 40 0
4873 4874 4875 4876 0
x-4877 1 2 4 6 7 8 10 11 12 14 15 16 0
x-4878 1 2 4 18 19 22 23 26 27 0
x-4879 6 7 8 18 19 29 32 33 36 0
x-4880 10 11 12 22 23 29 32 37 40 0
4877 4878 4879 4880 0
x-4881 1 2 4 6 7 8 10 11 12 13 14 15 0
x-4882 1 2 4 18 19 22 23 25 27 28 0
x-4883 6 7 8 18 19 29 32 34 35 36 0
x-4884 10 11 12 22 23 29 32 38 39 40 0
4881 4882 4883 4884 0
x-4885 1 2 4 6 7 8 10 11 12 13 14 16 0
x-4886 1 2 4 18 19 22 23 25 28 0
x-4887 6 7 8 18 19 29 32 34 35 0
x-4888 10 11 12 22 23 29 32 38 39 0
4885 4886 4887 4888 0
x-4889 1 2 4 6 7 8 9 10 11 13 16 0
x-4890 1 2 4 18 19 21 23 24 25 26 28 0
x-4891 6 7 8 18 19 30 31 32 33 34 35 0
x-4892 9 10 11 21 23 24 30 31 32 38 39 40 0
4889 4890 4891 4892 0
x-4893 1 2 4 6 7 8 9 10 11 13 15 16 0
x-4894 1 2 4 18 19 21 23 24 25 26 27 0
x-4895 6 7 8 18 19 30 31 32 33 34 36 0
x-4896 9 10 11 21 23 24 30 31 32 38 39 0
4893 4894 4895 4896 0
x-4897 1 2 4 6 7 8 9 10 11 14 15 0
x-4898 1 2 4 18 19 21 23 24 26 27 28 0
x-4899 6 7 8 18 19 30 31 32 33 35 36 0
x-4900 9 10 11 21 23 24 30 31 32 37 38 40 0
4897 4898 4899 4900 0
x-4901 1 2 4 6 7 8 9 10 11 14 15 16 0
x-4902 1 2 4 18 19 21 23 24 26 27 0
x-4903 6 7 8 18 19 30 31 32 33 36 0
x-4904 9 10 11 21 23 24 30 31 32 37 38 39 0
4901 4902 4903 4904 0
x-4905 1 2 4 6 7 8 9 10 11 13 14 15 0
x-4906 1 2 4 18 19 21 23 24 25 27 28 0
x-4907 6 7 8 18 19 30 31 32 34 35 36 0
x-4908 9 10 11 21 23 24 30 31 32 37 40 0
4905 4906 4907 4908 0
x-4909 1 2 4 6 7 8 9 10 11 13 14 16 0
x-4910 1 2 4 18 19 21 23 24 25 28 0
x-4911 6 7 8 18 19 30 31 32 34 35 0
x-4912 9 10 11 21 23 24 30 31 32 37 39 40 0
4909 4910 4911 4912 0
x-4913 1 2 4 6 7 8 9 10 12 13 16 0
x-4914 1 2 4 18 19 21 24 25 26 28 0
x-4915 6 7 8 18 19 30 31 33 34 35 0
x-4916 9 10 12 21 24 30 31 37 38 40 0
4913 4914 4915 4916 0
x-4917 1 2 4 6 7 8 9 10 12 13 15 16 0
x-4918 1 2 4 18 19 21 24 25 26 27 0
x-4919 6 7 8 18 19 30 31 33 34 36 0
x-4920 9 10 12 21 24 30 31 37 38 39 0
4917 4918 4919 4920 0
x-4921 1 2 4 6 7 8 9 10 12 14 15 0
x-4922 1 2 4 18 19 21 24 26 27 28 0
x-4923 6 7 8 18 19 30 31 33 35 36 0
x-4924 9 10 12 21 24 30 31 38 39 40 0
4921 4922 4923 4924 0
x-4925 1 2 4 6 7 8 9 10 12 14 15 16 0
x-4926 1 2 4 18 19 21 24 26 27 0
x-4927 6 7 8 18 19 30 31 33 36 0
x-4928 9 10 12 21 24 30 31 38 39 0
4925 4926 4927 4928 0
x-4929 1 2 4 6 7 8 9 10 12 13 14 15 0
x-4930 1 2 4 18 19 21 24 25 27 28 0
x-4931 6 7 8 18 19 30 31 34 35 36 0
x-4932 9 10 12 21 24 30 31 37 39 40 0
4929 4930 4931 4932 0
x-4933 1 2 4 6 7 8 9 10 12 13 14 16 0
x-4934 1 2 4 18 19 21 24 25 28 0
x-4935 6 7 8 18 19 30 31 34 35 0
x-4936 9 10 12 21 24 30 31 37 40 0
4933 4934 4935 4936 0
x-4937 1 2 4 5 6 7 9 12 13 16 0
x-4938 1 2 4 17 19 20 21 22 24 25 26 28 0
x-4939 5 6 7 17 19 20 30 31 32 34 35 36 0
x-4940 9 12 21 22 24 30 31 32 37 40 0
4937 4938 4939 4940 0
x-4941 1 2 4 5 6 7 9 12 13 15 16 0
x-4942 1 2 4 17 19 20 21 22 24 25 26 27 0
x-4943 5 6 7 17 19 20 30 31 32 34 35 0
x-4944 9 12 21 22 24 30 31 32 37 39 40 0
4941 4942 4943 4944 0
x-4945 1 2 4 5 6 7 9 12 14 15 0
x-4946 1 2 4 17 19 20 21 22 24 26 27 28 0
x-4947 5 6 7 17 19 20 30 31 32 33 34 36 0
x-4948 9 12 21 22 24 30 31 32 38 39 0
4945 4946 4947 4948 0
x-4949 1 2 4 5 6 7 9 12 14 15 16 0
x-4950 1 2 4 17 19 20 21 22 24 26 27 0
x-4951 5 6 7 17 19 20 30 31 32 33 34 35 0
x-4952 9 12 21 22 24 30 31 32 38 39 40 0
4949 4950 4951 4952 0
x-4953 1 2 4 5 6 7 9 12 13 14 15 0
x-4954 1 2 4 17 19 20 21 22 24 25 27 28 0
x-4955 5 6 7 17 19 20 30 31 32 33 36 0
x-4956 9 12 21 22 24 30 31 32 37 38 39 0
4953 4954 4955 4956 0
x-4957 1 2 4 5 6 7 9 12 13 14 16 0
x-4958 1 2 4 17 19 20 21 22 24 25 28 0
x-4959 5 6 7 17 19 20 30 31 32 33 35 36 0
x-4960 9 12 21 22 24 30 31 32 37 38 40 0
4957 4958 4959 4960 0
x-4961 1 2 4 5 6 7 9 11 12 13 16 0
x-4962 1 2 4 17 19 20 21 22 23 25 26 28 0
x-4963 5 6 7 17 19 20 30 31 34 35 36 0
x-4964 9 11 12 21 22 23 30 31 37 39 40 0
4961 4962 4963 4964 0
x-4965 1 2 4 5 6 7 9 11 12 13 15 16 0
x-4966 1 2 4 17 19 20 21 22 23 25 26 27 0
x-4967 5 6 7 17 19 20 30 31 34 35 0
x-4968 9 11 12 21 22 23 30 31 37 40 0
4965 4966 4967 4968 0
x-4969 1 2 4 5 6 7 9 11 12 14 15 0
x-4970 1 2 4 17 19 20 21 22 23 26 27 28 0
x-4971 5 6 7 17 19 20 30 31 33 34 36 0
x-4972 9 11 12 21 22 23 30 31 37 38 39 0
4969 4970 4971 4972 0
x-4973 1 2 4 5 6 7 9 11 12 14 15 16 0
x-4974 1 2 4 17 19 20 21 22 23 26 27 0
x-4975 5 6 7 17 19 20 30 31 33 34 35 0
x-4976 9 11 12 21 22 23 30 31 37 38 40 0
4973 4974 4975 4976 0
x-4977 1 2 4 5 6 7 9 11 12 13 14 15 0
x-4978 1 2 4 17 19 20 21 22 23 25 27 28 0
x-4979 5 6 7 17 19 20 30 31 33 36 0
x-4980 9 11 12 21 22 23 30 31 38 39 0
4977 4978 4979 4980 0
x-4981 1 2 4 5 6 7 9 11 12 13 14 16 0
x-4982 1 2 4 17 19 20 21 22 23 25 28 0
x-4983 5 6 7 17 19 20 30 31 33 35 36 0
x-4984 9 11 12 21 22 23 30 31 38 39 40 0
4981 4982 4983 4984 0
x-4985 1 2 4 5 6 7 10 11 13 16 0
x-4986 1 2 4 17 19 20 22 23 24 25 26 28 0
x-4987 5 6 7 17 19 20 29 30 32 34 35 36 0
x-4988 10 11 22 23 24 29 30 32 38 39 0
4985 4986 4987 4988 0
x-4989 1 2 4 5 6 7 10 11 13 15 16 0
x-4990 1 2 4 17 19 20 22 23 24 25 26 27 0
x-4991 5 6 7 17 19 20 29 30 32 34 35 0
x-4992 10 11 22 23 24 29 30 32 38 39 40 0
4989 4990 4991 4992 0
x-4993 1 2 4 5 6 7 10 11 14 15 0
x-4994 1 2 4 17 19 20 22 23 24 26 27 28 0
x-4995 5 6 7 17 19 20 29 30 32 33 34 36 0
x-4996 10 11 22 23 24 29 30 32 37 40 0
4993 4994 4995 4996 0
x-4997 1 2 4 5 6 7 10 11 14 15 16 0
x-4998 1 2 4 17 19 20 22 23 24 26 27 0
x-4999 5 6 7 17 19 20 29 30 32 33 34 35 0
x-5000 10 11 22 23 24 29 30 32 37 39 40 0
4997 4998 4999 5000 0
x-5001 1 2 4 5 6 7 10 11 13 14 15 0
x-5002 1 2 4 17 19 20 22 23 24 25 27 28 0
x-5003 5 6 7 17 19 20 29 30 32 33 36 0
x-5004 10 11 22 23 24 29 30 32 37 38 40 0
5001 5002 5003 5004 0
x-5005 1 2 4 5 6 7 10 11 13 14 16 0
x-5006 1 2 4 17 19 20 22 23 24 25 28 0
x-5007 5 6 7 17 19 20 29 30 32 33 35 36 0
x-5008 10 11 22 23 24 29 30 32 37 38 39 0
5005 5006 5007 5008 0
x-5009 1 2 4 5 6 7 10 11 12 13 16 0
x-5010 1 2 4 17 19 20 22 23 25 26 28 0
x-5011 5 6 7 17 19 20 29 30 31 34 35 36 0
x-5012 10 11 12 22 23 29 30 31 37 38 39 0
5009 5010 5011 5012 0
x-5013 1 2 4 5 6 7 10 11 12 13 15 16 0
x-5014 1 2 4 17 19 20 22 23 25 26 27 0
x-5015 5 6 7 17 19 20 29 30 31 34 35 0
x-5016 10 11 12 22 23 29 30 31 37 38 40 0
5013 5014 5015 5016 0
x-5017 1 2 4 5 6 7 10 11 12 14 15 0
x-5018 1 2 4 17 19 20 22 23 26 27 28 0
x-5019 5 6 7 17 19 20 29 30 31 33 34 36 0
x-5020 10 11 12 22 23 29 30 31 37 39 40 0
5017 5018 5019 5020 0
x-5021 1 2 4 5 6 7 10 11 12 14 15 16 0
x-5022 1 2 4 17 19 20 22 23 26 27 0
x-5023 5 6 7 17 19 20 29 30 31 33 34 35 0
x-5024 10 11 12 22 23 29 30 31 37 40 0
5021 5022 5023 5024 0
x-5025 1 2 4 5 6 7 10 11 12 13 14 15 0
x-5026 1 2 4 17 19 20 22 23 25 27 28 0
x-5027 5 6 7 17 19 20 29 30 31 33 36 0
x-5028 10 11 12 22 23 29 30 31 38 39 40 0
5025 5026 5027 5028 0
x-5029 1 2 4 5 6 7 10 11 12 13 14 16 0
x-5030 1 2 4 17 19 20 22 23 25 28 0
x-5031 5 6 7 17 19 20 29 30 31 33 35 36 0
x-5032 10 11 12 22 23 29 30 31 38 39 0
5029 5030 5031 5032 0
x-5033 1 2 4 5 6 7 9 10 11 13 16 0
x-5034 1 2 4 17 19 20 21 23 24 25 26 28 0
x-5035 5 6 7 17 19 20 29 32 34 35 36 0
x-5036 9 10 11 21 23 24 29 32 38 39 40 0
5033 5034 5035 5036 0
x-5037 1 2 4 5 6 7 9 10 11 13 15 16 0
x-5038 1 2 4 17 19 20 21 23 24 25 26 27 0
x-5039 5 6 7 17 19 20 29 32 34 35 0
x-5040 9 10 11 21 23 24 29 32 38 39 0
5037 5038 5039 5040 0
x-5041 1 2 4 5 6 7 9 10 11 14 15 0
x-5042 1 2 4 17 19 20 21 23 24 26 27 28 0
x-5043 5 6 7 17 19 20 29 32 33 34 36 0
x-5044 9 10 11 21 23 24 29 32 37 38 40 0
5041 5042 5043 5044 0
x-5045 1 2 4 5 6 7 9 10 11 14 15 16 0
x-5046 1 2 4 17 19 20 21 23 24 26 27 0
x-5047 5 6 7 17 19 20 29 32 33 34 35 0
x-5048 9 10 11 21 23 24 29 32 37 38 39 0
5045 5046 5047 5048 0
x-5049 1 2 4 5 6 7 9 10 11 13 14 15 0
x-5050 1 2 4 17 19 20 21 23 24 25 27 28 0
x-5051 5 6 7 17 19 20 29 32 33 36 0
x-5052 9 10 11 21 23 24 29 32 37 40 0
5049 5050 5051 5052 0
x-5053 1 2 4 5 6 7 9 10 11 13 14 16 0
x-5054 1 2 4 17 19 20 21 23 24 25 28 0
x-5055 5 6 7 17 19 20 29 32 33 35 36 0
x-5056 9 10 11 21 23 24 29 32 37 39 40 0
5053 5054 5055 5056 0
x-5057 1 2 4 5 6 7 9 10 12 13 16 0
x-5058 1 2 4 17 19 20 21 24 25 26 28 0
x-5059 5 6 7 17 19 20 29 31 32 34 35 36 0
x-5060 9 10 12 21 24 29 31 32 37 38 40 0
5057 5058 5059 5060 0
x-5061 1 2 4 5 6 7 9 10 12 13 15 16 0
x-5062 1 2 4 17 19 20 21 24 25 26 27 0
x-5063 5 6 7 17 19 20 29 31 32 34 35 0
x-5064 9 10 12 21 24 29 31 32 37 38 39 0
5061 5062 5063 5064 0
x-5065 1 2 4 5 6 7 9 10 12 14 15 0
x-5066 1 2 4 17 19 20 21 24 26 27 28 0
x-5067 5 6 7 17 19 20 29 31 32 33 34 36 0
x-5068 9 10 12 21 24 29 31 32 38 39 40 0
5065 5066 5067 5068 0
x-5069 1 2 4 5 6 7 9 10 12 14 15 16 0
x-5070 1 2 4 17 19 20 21 24 26 27 0
x-5071 5 6 7 17 19 20 29 31 32 33 34 35 0
x-5072 9 10 12 21 24 29 31 32 38 39 0
5069 5070 5071 5072 0
x-5073 1 2 4 5 6 7 9 10 12 13 14 15 0
x-5074 1 2 4 17 19 20 21 24 25 27 28 0
x-5075 5 6 7 17 19 20 29 31 32 33 36 0
x-5076 9 10 12 21 24 29 31 32 37 39 40 0
5073 5074 5075 5076 0
x-5077 1 2 4 5 6 7 9 10 12 13 14 16 0
x-5078 1 2 4 17 19 20 21 24 25 28 0
x-5079 5 6 7 17 19 20 29 31 32 33 35 36 0
x-5080 9 10 12 21 24 29 31 32 37 40 0
5077 5078 5079 5080 0
x-5081 1 2 4 5 6 8 9 12 13 16 0
x-5082 1 2 4 17 20 21 22 24 25 26 28 0
x-5083 5 6 8 17 20 29 30 32 33 34 36 0
x-5084 9 12 21 22 24 29 30 32 37 40 0
5081 5082 5083 5084 0
x-5085 1 2 4 5 6 8 9 12 13 15 16 0
x-5086 1 2 4 17 20 21 22 24 25 26 27 0
x-5087 5 6 8 17 20 29 30 32 33 34 35 0
x-5088 9 12 21 22 24 29 30 32 37 39 40 0
5085 5086 5087 5088 0
x-5089 1 2 4 5 6 8 9 12 14 15 0
x-5090 1 2 4 17 20 21 22 24 26 27 28 0
x-5091 5 6 8 17 20 29 30 32 34 35 36 0
x-5092 9 12 21 22 24 29 30 32 38 39 0
5089 5090 5091 5092 0
x-5093 1 2 4 5 6 8 9 12 14 15 16 0
x-5094 1 2 4 17 20 21 22 24 26 27 0
x-5095 5 6 8 17 20 29 30 32 34 35 0
x-5096 9 12 21 22 24 29 30 32 38 39 40 0
5093 5094 5095 5096 0
x-5097 1 2 4 5 6 8 9 12 13 14 15 0
x-5098 1 2 4 17 20 21 22 24 25 27 28 0
x-5099 5 6 8 17 20 29 30 32 33 35 36 0
x-5100 9 12 21 22 24 29 30 32 37 38 39 0
5097 5098 5099 5100 0
x-5101 1 2 4 5 6 8 9 12 13 14 16 0
x-5102 1 2 4 17 20 21 22 24 25 28 0
x-5103 5 6 8 17 20 29 30 32 33 36 0
x-5104 9 12 21 22 24 29 30 32 37 38 40 0
5101 5102 5103 5104 0
x-5105 1 2 4 5 6 8 9 11 12 13 16 0
x-5106 1 2 4 17 20 21 22 23 25 26 28 0
x-5107 5 6 8 17 20 29 30 31 33 34 36 0
x-5108 9 11 12 21 22 23 29 30 31 37 39 40 0
5105 5106 5107 5108 0
x-5109 1 2 4 5 6 8 9 11 12 13 15 16 0
x-5110 1 2 4 17 20 21 22 23 25 26 27 0
x-5111 5 6 8 17 20 29 30 31 33 34 35 0
x-5112 9 11 12 21 22 23 29 30 31 37 40 0
5109 5110 5111 5112 0
x-5113 1 2 4 5 6 8 9 11 12 14 15 0
x-5114 1 2 4 17 20 21 22 23 26 27 28 0
x-5115 5 6 8 17 20 29 30 31 34 35 36 0
x-5116 9 11 12 21 22 23 29 30 31 37 38 39 0
5113 5114 5115 5116 0
x-5117 1 2 4 5 6 8 9 11 12 14 15 16 0
x-5118 1 2 4 17 20 21 22 23 26 27 0
x-5119 5 6 8 17 20 29 30 31 34 35 0
x-5120 9 11 12 21 22 23 29 30 31 37 38 40 0
5117 5118 5119 5120 0
x-5121 1 2 4 5 6 8 9 11 12 13 14 15 0
x-5122 1 2 4 17 20 21 22 23 25 27 28 0
x-5123 5 6 8 17 20 29 30 31 33 35 36 0
x-5124 9 11 12 21 22 23 29 30 31 38 39 0
5121 5122 5123 5124 0
x-5125 1 2 4 5 6 8 9 11 12 13 14 16 0
x-5126 1 2 4 17 20 21 22 23 25 28 0
x-5127 5 6 8 17 20 29 30 31 33 36 0
x-5128 9 11 12 21 22 23 29 30 31 38 39 40 0
5125 5126 5127 5128 0
x-5129 1 2 4 5 6 8 10 11 13 16 0
x-5130 1 2 4 17 20 22 23 24 25 26 28 0
x-5131 5 6 8 17 20 30 31 32 33 34 36 0
x-5132 10 11 22 23 24 30 31 32 38 39 0
5129 5130 5131 5132 0
x-5133 1 2 4 5 6 8 10 11 13 15 16 0
x-5134 1 2 4 17 20 22 23 24 25 26 27 0
x-5135 5 6 8 17 20 30 31 32 33 34 35 0
x-5136 10 11 22 23 24 30 31 32 38 39 40 0
5133 5134 5135 5136 0
x-5137 1 2 4 5 6 8 10 11 14 15 0
x-5138 1 2 4 17 20 22 23 24 26 27 28 0
x-5139 5 6 8 17 20 30 31 32 34 35 36 0
x-5140 10 11 22 23 24 30 31 32 37 40 0
5137 5138 5139 5140 0
x-5141 1 2 4 5 6 8 10 11 14 15 16 0
x-5142 1 2 4 17 20 22 23 24 26 27 0
x-5143 5 6 8 17 20 30 31 32 34 35 0
x-5144 10 11 22 23 24 30 31 32 37 39 40 0
5141 5142 5143 5144 0
x-5145 1 2 4 5 6 8 10 11 13 14 15 0
x-5146 1 2 4 17 20 22 23 24 25 27 28 0
x-5147 5 6 8 17 20 30 31 32 33 35 36 0
x-5148 10 11 22 23 24 30 31 32 37 38 40 0
5145 5146 5147 5148 0
x-5149 1 2 4 5 6 8 10 11 13 14 16 0
x-5150 1 2 4 17 20 22 23 24 25 28 0
x-5151 5 6 8 17 20 30 31 32 33 36 0
x-5152 10 11 22 23 24 30 31 32 37 38 39 0
5149 5150 5151 5152 0
x-5153 1 2 4 5 6 8 10 11 12 13 16 0
x-5154 1 2 4 17 20 22 23 25 26 28 0
x-5155 5 6 8 17 20 30 31 33 34 36 0
x-5156 10 11 12 22 23 30 31 37 38 39 0
5153 5154 5155 5156 0
x-5157 1 2 4 5 6 8 10 11 12 13 15 16 0
x-5158 1 2 4 17 20 22 23 25 26 27 0
x-5159 5 6 8 17 20 30 31 33 34 35 0
x-5160 10 11 12 22 23 30 31 37 38 40 0
5157 5158 5159 5160 0
x-5161 1 2 4 5 6 8 10 11 12 14 15 0
x-5162 1 2 4 17 20 22 23 26 27 28 0
x-5163 5 6 8 17 20 30 31 34 35 36 0
x-5164 10 11 12 22 23 30 31 37 39 40 0
5161 5162 5163 5164 0
x-5165 1 2 4 5 6 8 10 11 12 14 15 16 0
x-5166 1 2 4 17 20 22 23 26 27 0
x-5167 5 6 8 17 20 30 31 34 35 0
x-5168 10 11 12 22 23 30 31 37 40 0
5165 5166 5167 5168 0
x-5169 1 2 4 5 6 8 10 11 12 13 14 15 0
x-5170 1 2 4 17 20 22 23 25 27 28 0
x-5171 5 6 8 17 20 30 31 33 35 36 0
x-5172 10 11 12 22 23 30 31 38 39 40 0
5169 5170 5171 5172 0
x-5173 1 2 4 5 6 8 10 11 12 13 14 16 0
x-5174 1 2 4 17 20 22 23 25 28 0
x-5175 5 6 8 17 20 30 31 33 36 0
x-5176 10 11 12 22 23 30 31 38 39 0
5173 5174 5175 5176 0
x-5177 1 2 4 5 6 8 9 10 11 13 16 0
x-5178 1 2 4 17 20 21 23 24 25 26 28 0
x-5179 5 6 8 17 20 29 31 32 33 34 36 0
x-5180 9 10 11 21 23 24 29 31 32 38 39 40 0
5177 5178 5179 5180 0
x-5181 1 2 4 5 6 8 9 10 11 13 15 16 0
x-5182 1 2 4 17 20 21 23 24 25 26 27 0
x-5183 5 6 8 17 20 29 31 32 33 34 35 0
x-5184 9 10 11 21 23 24 29 31 32 38 39 0
5181 5182 5183 5184 0
x-5185 1 2 4 5 6 8 9 10 11 14 15 0
x-5186 1 2 4 17 20 21 23 24 26 27 28 0
x-5187 5 6 8 17 20 29 31 32 34 35 36 0
x-5188 9 10 11 21 23 24 29 31 32 37 38 40 0
5185 5186 5187 5188 0
x-5189 1 2 4 5 6 8 9 10 11 14 15 16 0
x-5190 1 2 4 17 20 21 23 24 26 27 0
x-5191 5 6 8 17 20 29 31 32 34 35 0
x-5192 9 10 11 21 23 24 29 31 32 37 38 39 0
5189 5190 5191 5192 0
x-5193 1 2 4 5 6 8 9 10 11 13 14 15 0
x-5194 1 2 4 17 20 21 23 24 25 27 28 0
x-5195 5 6 8 17 20 29 31 32 33 35 36 0
x-5196 9 10 11 21 23 24 29 31 32 37 40 0
5193 5194 5195 5196 0
x-5197 1 2 4 5 6 8 9 10 11 13 14 16 0
x-5198 1 2 4 17 20 21 23 24 25 28 0
x-5199 5 6 8 17 20 29 31 32 33 36 0
x-5200 9 10 11 21 23 24 29 31 32 37 39 40 0
5197 5198 5199 5200 0
x-5201 1 2 4 5 6 8 9 10 12 13 16 0
x-5202 1 2 4 17 20 21 24 25 26 28 0
x-5203 5 6 8 17 20 29 32 33 34 36 0
x-5204 9 10 12 21 24 29 32 37 38 40 0
5201 5202 5203 5204 0
x-5205 1 2 4 5 6 8 9 10 12 13 15 16 0
x-5206 1 2 4 17 20 21 24 25 26 27 0
x-5207 5 6 8 17 20 29 32 33 34 35 0
x-5208 9 10 12 21 24 29 32 37 38 39 0
5205 5206 5207 5208 0
x-5209 1 2 4 5 6 8 9 10 12 14 15 0
x-5210 1 2 4 17 20 21 24 26 27 28 0
x-5211 5 6 8 17 20 29 32 34 35 36 0
x-5212 9 10 12 21 24 29 32 38 39 40 0
5209 5210 5211 5212 0
x-5213 1 2 4 5 6 8 9 10 12 14 15 16 0
x-5214 1 2 4 17 20 21 24 26 27 0
x-5215 5 6 8 17 20 29 32 34 35 0
x-5216 9 10 12 21 24 29 32 38 39 0
5213 5214 5215 5216 0
x-5217 1 2 4 5 6 8 9 10 12 13 14 15 0
x-5218 1 2 4 17 20 21 24 25 27 28 0
x-5219 5 6 8 17 20 29 32 33 35 36 0
x-5220 9 10 12 21 24 29 32 37 39 40 0
5217 5218 5219 5220 0
x-5221 1 2 4 5 6 8 9 10 12 13 14 16 0
x-5222 1 2 4 17 20 21 24 25 28 0
x-5223 5 6 8 17 20 29 32 33 36 0
x-5224 9 10 12 21 24 29 32 37 40 0
5221 5222 5223 5224 0
