c F2^2 flow with at most three zero edges
c UNSAT proves flow resistance at least four
c zero indicators are equivalent to both flow bits false
c remaining variables form an at-most-three sequential counter
p cnf 1455 3708
-1 -3 -5 0
-1 3 5 0
1 -3 5 0
1 3 -5 0
-2 -4 -6 0
-2 4 6 0
2 -4 6 0
2 4 -6 0
-1 -7 -9 0
-1 7 9 0
1 -7 9 0
1 7 -9 0
-2 -8 -10 0
-2 8 10 0
2 -8 10 0
2 8 -10 0
-11 -13 -15 0
-11 13 15 0
11 -13 15 0
11 13 -15 0
-12 -14 -16 0
-12 14 16 0
12 -14 16 0
12 14 -16 0
-17 -19 -21 0
-17 19 21 0
17 -19 21 0
17 19 -21 0
-18 -20 -22 0
-18 20 22 0
18 -20 22 0
18 20 -22 0
-3 -11 -23 0
-3 11 23 0
3 -11 23 0
3 11 -23 0
-4 -12 -24 0
-4 12 24 0
4 -12 24 0
4 12 -24 0
-7 -13 -17 0
-7 13 17 0
7 -13 17 0
7 13 -17 0
-8 -14 -18 0
-8 14 18 0
8 -14 18 0
8 14 -18 0
-19 -23 -25 0
-19 23 25 0
19 -23 25 0
19 23 -25 0
-20 -24 -26 0
-20 24 26 0
20 -24 26 0
20 24 -26 0
-27 -29 -31 0
-27 29 31 0
27 -29 31 0
27 29 -31 0
-28 -30 -32 0
-28 30 32 0
28 -30 32 0
28 30 -32 0
-5 -27 -33 0
-5 27 33 0
5 -27 33 0
5 27 -33 0
-6 -28 -34 0
-6 28 34 0
6 -28 34 0
6 28 -34 0
-21 -35 -37 0
-21 35 37 0
21 -35 37 0
21 35 -37 0
-22 -36 -38 0
-22 36 38 0
22 -36 38 0
22 36 -38 0
-35 -39 -41 0
-35 39 41 0
35 -39 41 0
35 39 -41 0
-36 -40 -42 0
-36 40 42 0
36 -40 42 0
36 40 -42 0
-29 -43 -45 0
-29 43 45 0
29 -43 45 0
29 43 -45 0
-30 -44 -46 0
-30 44 46 0
30 -44 46 0
30 44 -46 0
-33 -47 -49 0
-33 47 49 0
33 -47 49 0
33 47 -49 0
-34 -48 -50 0
-34 48 50 0
34 -48 50 0
34 48 -50 0
-37 -43 -51 0
-37 43 51 0
37 -43 51 0
37 43 -51 0
-38 -44 -52 0
-38 44 52 0
38 -44 52 0
38 44 -52 0
-39 -45 -47 0
-39 45 47 0
39 -45 47 0
39 45 -47 0
-40 -46 -48 0
-40 46 48 0
40 -46 48 0
40 46 -48 0
-49 -51 -53 0
-49 51 53 0
49 -51 53 0
49 51 -53 0
-50 -52 -54 0
-50 52 54 0
50 -52 54 0
50 52 -54 0
-15 -41 -55 0
-15 41 55 0
15 -41 55 0
15 41 -55 0
-16 -42 -56 0
-16 42 56 0
16 -42 56 0
16 42 -56 0
-53 -57 -59 0
-53 57 59 0
53 -57 59 0
53 57 -59 0
-54 -58 -60 0
-54 58 60 0
54 -58 60 0
54 58 -60 0
-57 -61 -63 0
-57 61 63 0
57 -61 63 0
57 61 -63 0
-58 -62 -64 0
-58 62 64 0
58 -62 64 0
58 62 -64 0
-65 -67 -69 0
-65 67 69 0
65 -67 69 0
65 67 -69 0
-66 -68 -70 0
-66 68 70 0
66 -68 70 0
66 68 -70 0
-31 -71 -73 0
-31 71 73 0
31 -71 73 0
31 71 -73 0
-32 -72 -74 0
-32 72 74 0
32 -72 74 0
32 72 -74 0
-59 -65 -75 0
-59 65 75 0
59 -65 75 0
59 65 -75 0
-60 -66 -76 0
-60 66 76 0
60 -66 76 0
60 66 -76 0
-61 -67 -71 0
-61 67 71 0
61 -67 71 0
61 67 -71 0
-62 -68 -72 0
-62 68 72 0
62 -68 72 0
62 68 -72 0
-73 -75 -77 0
-73 75 77 0
73 -75 77 0
73 75 -77 0
-74 -76 -78 0
-74 76 78 0
74 -76 78 0
74 76 -78 0
-79 -81 -83 0
-79 81 83 0
79 -81 83 0
79 81 -83 0
-80 -82 -84 0
-80 82 84 0
80 -82 84 0
80 82 -84 0
-79 -85 -87 0
-79 85 87 0
79 -85 87 0
79 85 -87 0
-80 -86 -88 0
-80 86 88 0
80 -86 88 0
80 86 -88 0
-89 -91 -93 0
-89 91 93 0
89 -91 93 0
89 91 -93 0
-90 -92 -94 0
-90 92 94 0
90 -92 94 0
90 92 -94 0
-95 -97 -99 0
-95 97 99 0
95 -97 99 0
95 97 -99 0
-96 -98 -100 0
-96 98 100 0
96 -98 100 0
96 98 -100 0
-81 -89 -101 0
-81 89 101 0
81 -89 101 0
81 89 -101 0
-82 -90 -102 0
-82 90 102 0
82 -90 102 0
82 90 -102 0
-85 -91 -95 0
-85 91 95 0
85 -91 95 0
85 91 -95 0
-86 -92 -96 0
-86 92 96 0
86 -92 96 0
86 92 -96 0
-97 -101 -103 0
-97 101 103 0
97 -101 103 0
97 101 -103 0
-98 -102 -104 0
-98 102 104 0
98 -102 104 0
98 102 -104 0
-77 -105 -107 0
-77 105 107 0
77 -105 107 0
77 105 -107 0
-78 -106 -108 0
-78 106 108 0
78 -106 108 0
78 106 -108 0
-83 -105 -109 0
-83 105 109 0
83 -105 109 0
83 105 -109 0
-84 -106 -110 0
-84 106 110 0
84 -106 110 0
84 106 -110 0
-99 -111 -113 0
-99 111 113 0
99 -111 113 0
99 111 -113 0
-100 -112 -114 0
-100 112 114 0
100 -112 114 0
100 112 -114 0
-111 -115 -117 0
-111 115 117 0
111 -115 117 0
111 115 -117 0
-112 -116 -118 0
-112 116 118 0
112 -116 118 0
112 116 -118 0
-107 -119 -121 0
-107 119 121 0
107 -119 121 0
107 119 -121 0
-108 -120 -122 0
-108 120 122 0
108 -120 122 0
108 120 -122 0
-109 -123 -125 0
-109 123 125 0
109 -123 125 0
109 123 -125 0
-110 -124 -126 0
-110 124 126 0
110 -124 126 0
110 124 -126 0
-113 -119 -127 0
-113 119 127 0
113 -119 127 0
113 119 -127 0
-114 -120 -128 0
-114 120 128 0
114 -120 128 0
114 120 -128 0
-115 -121 -123 0
-115 121 123 0
115 -121 123 0
115 121 -123 0
-116 -122 -124 0
-116 122 124 0
116 -122 124 0
116 122 -124 0
-63 -125 -127 0
-63 125 127 0
63 -125 127 0
63 125 -127 0
-64 -126 -128 0
-64 126 128 0
64 -126 128 0
64 126 -128 0
-55 -93 -117 0
-55 93 117 0
55 -93 117 0
55 93 -117 0
-56 -94 -118 0
-56 94 118 0
56 -94 118 0
56 94 -118 0
-129 -131 -133 0
-129 131 133 0
129 -131 133 0
129 131 -133 0
-130 -132 -134 0
-130 132 134 0
130 -132 134 0
130 132 -134 0
-129 -135 -137 0
-129 135 137 0
129 -135 137 0
129 135 -137 0
-130 -136 -138 0
-130 136 138 0
130 -136 138 0
130 136 -138 0
-139 -141 -143 0
-139 141 143 0
139 -141 143 0
139 141 -143 0
-140 -142 -144 0
-140 142 144 0
140 -142 144 0
140 142 -144 0
-145 -147 -149 0
-145 147 149 0
145 -147 149 0
145 147 -149 0
-146 -148 -150 0
-146 148 150 0
146 -148 150 0
146 148 -150 0
-131 -139 -151 0
-131 139 151 0
131 -139 151 0
131 139 -151 0
-132 -140 -152 0
-132 140 152 0
132 -140 152 0
132 140 -152 0
-135 -141 -145 0
-135 141 145 0
135 -141 145 0
135 141 -145 0
-136 -142 -146 0
-136 142 146 0
136 -142 146 0
136 142 -146 0
-147 -151 -153 0
-147 151 153 0
147 -151 153 0
147 151 -153 0
-148 -152 -154 0
-148 152 154 0
148 -152 154 0
148 152 -154 0
-155 -157 -159 0
-155 157 159 0
155 -157 159 0
155 157 -159 0
-156 -158 -160 0
-156 158 160 0
156 -158 160 0
156 158 -160 0
-133 -155 -161 0
-133 155 161 0
133 -155 161 0
133 155 -161 0
-134 -156 -162 0
-134 156 162 0
134 -156 162 0
134 156 -162 0
-149 -163 -165 0
-149 163 165 0
149 -163 165 0
149 163 -165 0
-150 -164 -166 0
-150 164 166 0
150 -164 166 0
150 164 -166 0
-163 -167 -169 0
-163 167 169 0
163 -167 169 0
163 167 -169 0
-164 -168 -170 0
-164 168 170 0
164 -168 170 0
164 168 -170 0
-157 -171 -173 0
-157 171 173 0
157 -171 173 0
157 171 -173 0
-158 -172 -174 0
-158 172 174 0
158 -172 174 0
158 172 -174 0
-161 -175 -177 0
-161 175 177 0
161 -175 177 0
161 175 -177 0
-162 -176 -178 0
-162 176 178 0
162 -176 178 0
162 176 -178 0
-165 -171 -179 0
-165 171 179 0
165 -171 179 0
165 171 -179 0
-166 -172 -180 0
-166 172 180 0
166 -172 180 0
166 172 -180 0
-167 -173 -175 0
-167 173 175 0
167 -173 175 0
167 173 -175 0
-168 -174 -176 0
-168 174 176 0
168 -174 176 0
168 174 -176 0
-177 -179 -181 0
-177 179 181 0
177 -179 181 0
177 179 -181 0
-178 -180 -182 0
-178 180 182 0
178 -180 182 0
178 180 -182 0
-143 -169 -183 0
-143 169 183 0
143 -169 183 0
143 169 -183 0
-144 -170 -184 0
-144 170 184 0
144 -170 184 0
144 170 -184 0
-185 -187 -189 0
-185 187 189 0
185 -187 189 0
185 187 -189 0
-186 -188 -190 0
-186 188 190 0
186 -188 190 0
186 188 -190 0
-185 -191 -193 0
-185 191 193 0
185 -191 193 0
185 191 -193 0
-186 -192 -194 0
-186 192 194 0
186 -192 194 0
186 192 -194 0
-195 -197 -199 0
-195 197 199 0
195 -197 199 0
195 197 -199 0
-196 -198 -200 0
-196 198 200 0
196 -198 200 0
196 198 -200 0
-201 -203 -205 0
-201 203 205 0
201 -203 205 0
201 203 -205 0
-202 -204 -206 0
-202 204 206 0
202 -204 206 0
202 204 -206 0
-187 -195 -207 0
-187 195 207 0
187 -195 207 0
187 195 -207 0
-188 -196 -208 0
-188 196 208 0
188 -196 208 0
188 196 -208 0
-191 -197 -201 0
-191 197 201 0
191 -197 201 0
191 197 -201 0
-192 -198 -202 0
-192 198 202 0
192 -198 202 0
192 198 -202 0
-203 -207 -209 0
-203 207 209 0
203 -207 209 0
203 207 -209 0
-204 -208 -210 0
-204 208 210 0
204 -208 210 0
204 208 -210 0
-211 -213 -215 0
-211 213 215 0
211 -213 215 0
211 213 -215 0
-212 -214 -216 0
-212 214 216 0
212 -214 216 0
212 214 -216 0
-189 -211 -217 0
-189 211 217 0
189 -211 217 0
189 211 -217 0
-190 -212 -218 0
-190 212 218 0
190 -212 218 0
190 212 -218 0
-205 -219 -221 0
-205 219 221 0
205 -219 221 0
205 219 -221 0
-206 -220 -222 0
-206 220 222 0
206 -220 222 0
206 220 -222 0
-219 -223 -225 0
-219 223 225 0
219 -223 225 0
219 223 -225 0
-220 -224 -226 0
-220 224 226 0
220 -224 226 0
220 224 -226 0
-213 -227 -229 0
-213 227 229 0
213 -227 229 0
213 227 -229 0
-214 -228 -230 0
-214 228 230 0
214 -228 230 0
214 228 -230 0
-217 -231 -233 0
-217 231 233 0
217 -231 233 0
217 231 -233 0
-218 -232 -234 0
-218 232 234 0
218 -232 234 0
218 232 -234 0
-221 -227 -235 0
-221 227 235 0
221 -227 235 0
221 227 -235 0
-222 -228 -236 0
-222 228 236 0
222 -228 236 0
222 228 -236 0
-223 -229 -231 0
-223 229 231 0
223 -229 231 0
223 229 -231 0
-224 -230 -232 0
-224 230 232 0
224 -230 232 0
224 230 -232 0
-233 -235 -237 0
-233 235 237 0
233 -235 237 0
233 235 -237 0
-234 -236 -238 0
-234 236 238 0
234 -236 238 0
234 236 -238 0
-199 -225 -239 0
-199 225 239 0
199 -225 239 0
199 225 -239 0
-200 -226 -240 0
-200 226 240 0
200 -226 240 0
200 226 -240 0
-87 -159 -241 0
-87 159 241 0
87 -159 241 0
87 159 -241 0
-88 -160 -242 0
-88 160 242 0
88 -160 242 0
88 160 -242 0
-103 -215 -241 0
-103 215 241 0
103 -215 241 0
103 215 -241 0
-104 -216 -242 0
-104 216 242 0
104 -216 242 0
104 216 -242 0
-9 -181 -243 0
-9 181 243 0
9 -181 243 0
9 181 -243 0
-10 -182 -244 0
-10 182 244 0
10 -182 244 0
10 182 -244 0
-25 -243 -245 0
-25 243 245 0
25 -243 245 0
25 243 -245 0
-26 -244 -246 0
-26 244 246 0
26 -244 246 0
26 244 -246 0
-237 -245 -247 0
-237 245 247 0
237 -245 247 0
237 245 -247 0
-238 -246 -248 0
-238 246 248 0
238 -246 248 0
238 246 -248 0
-69 -183 -239 0
-69 183 239 0
69 -183 239 0
69 183 -239 0
-70 -184 -240 0
-70 184 240 0
70 -184 240 0
70 184 -240 0
-249 -251 -253 0
-249 251 253 0
249 -251 253 0
249 251 -253 0
-250 -252 -254 0
-250 252 254 0
250 -252 254 0
250 252 -254 0
-249 -255 -257 0
-249 255 257 0
249 -255 257 0
249 255 -257 0
-250 -256 -258 0
-250 256 258 0
250 -256 258 0
250 256 -258 0
-259 -261 -263 0
-259 261 263 0
259 -261 263 0
259 261 -263 0
-260 -262 -264 0
-260 262 264 0
260 -262 264 0
260 262 -264 0
-265 -267 -269 0
-265 267 269 0
265 -267 269 0
265 267 -269 0
-266 -268 -270 0
-266 268 270 0
266 -268 270 0
266 268 -270 0
-251 -259 -271 0
-251 259 271 0
251 -259 271 0
251 259 -271 0
-252 -260 -272 0
-252 260 272 0
252 -260 272 0
252 260 -272 0
-255 -261 -265 0
-255 261 265 0
255 -261 265 0
255 261 -265 0
-256 -262 -266 0
-256 262 266 0
256 -262 266 0
256 262 -266 0
-267 -271 -273 0
-267 271 273 0
267 -271 273 0
267 271 -273 0
-268 -272 -274 0
-268 272 274 0
268 -272 274 0
268 272 -274 0
-275 -277 -279 0
-275 277 279 0
275 -277 279 0
275 277 -279 0
-276 -278 -280 0
-276 278 280 0
276 -278 280 0
276 278 -280 0
-253 -275 -281 0
-253 275 281 0
253 -275 281 0
253 275 -281 0
-254 -276 -282 0
-254 276 282 0
254 -276 282 0
254 276 -282 0
-269 -283 -285 0
-269 283 285 0
269 -283 285 0
269 283 -285 0
-270 -284 -286 0
-270 284 286 0
270 -284 286 0
270 284 -286 0
-283 -287 -289 0
-283 287 289 0
283 -287 289 0
283 287 -289 0
-284 -288 -290 0
-284 288 290 0
284 -288 290 0
284 288 -290 0
-277 -291 -293 0
-277 291 293 0
277 -291 293 0
277 291 -293 0
-278 -292 -294 0
-278 292 294 0
278 -292 294 0
278 292 -294 0
-281 -295 -297 0
-281 295 297 0
281 -295 297 0
281 295 -297 0
-282 -296 -298 0
-282 296 298 0
282 -296 298 0
282 296 -298 0
-285 -291 -299 0
-285 291 299 0
285 -291 299 0
285 291 -299 0
-286 -292 -300 0
-286 292 300 0
286 -292 300 0
286 292 -300 0
-287 -293 -295 0
-287 293 295 0
287 -293 295 0
287 293 -295 0
-288 -294 -296 0
-288 294 296 0
288 -294 296 0
288 294 -296 0
-297 -299 -301 0
-297 299 301 0
297 -299 301 0
297 299 -301 0
-298 -300 -302 0
-298 300 302 0
298 -300 302 0
298 300 -302 0
-263 -289 -303 0
-263 289 303 0
263 -289 303 0
263 289 -303 0
-264 -290 -304 0
-264 290 304 0
264 -290 304 0
264 290 -304 0
-305 -307 -309 0
-305 307 309 0
305 -307 309 0
305 307 -309 0
-306 -308 -310 0
-306 308 310 0
306 -308 310 0
306 308 -310 0
-305 -311 -313 0
-305 311 313 0
305 -311 313 0
305 311 -313 0
-306 -312 -314 0
-306 312 314 0
306 -312 314 0
306 312 -314 0
-315 -317 -319 0
-315 317 319 0
315 -317 319 0
315 317 -319 0
-316 -318 -320 0
-316 318 320 0
316 -318 320 0
316 318 -320 0
-321 -323 -325 0
-321 323 325 0
321 -323 325 0
321 323 -325 0
-322 -324 -326 0
-322 324 326 0
322 -324 326 0
322 324 -326 0
-307 -315 -327 0
-307 315 327 0
307 -315 327 0
307 315 -327 0
-308 -316 -328 0
-308 316 328 0
308 -316 328 0
308 316 -328 0
-311 -317 -321 0
-311 317 321 0
311 -317 321 0
311 317 -321 0
-312 -318 -322 0
-312 318 322 0
312 -318 322 0
312 318 -322 0
-323 -327 -329 0
-323 327 329 0
323 -327 329 0
323 327 -329 0
-324 -328 -330 0
-324 328 330 0
324 -328 330 0
324 328 -330 0
-331 -333 -335 0
-331 333 335 0
331 -333 335 0
331 333 -335 0
-332 -334 -336 0
-332 334 336 0
332 -334 336 0
332 334 -336 0
-309 -331 -337 0
-309 331 337 0
309 -331 337 0
309 331 -337 0
-310 -332 -338 0
-310 332 338 0
310 -332 338 0
310 332 -338 0
-325 -339 -341 0
-325 339 341 0
325 -339 341 0
325 339 -341 0
-326 -340 -342 0
-326 340 342 0
326 -340 342 0
326 340 -342 0
-339 -343 -345 0
-339 343 345 0
339 -343 345 0
339 343 -345 0
-340 -344 -346 0
-340 344 346 0
340 -344 346 0
340 344 -346 0
-333 -347 -349 0
-333 347 349 0
333 -347 349 0
333 347 -349 0
-334 -348 -350 0
-334 348 350 0
334 -348 350 0
334 348 -350 0
-337 -351 -353 0
-337 351 353 0
337 -351 353 0
337 351 -353 0
-338 -352 -354 0
-338 352 354 0
338 -352 354 0
338 352 -354 0
-341 -347 -355 0
-341 347 355 0
341 -347 355 0
341 347 -355 0
-342 -348 -356 0
-342 348 356 0
342 -348 356 0
342 348 -356 0
-343 -349 -351 0
-343 349 351 0
343 -349 351 0
343 349 -351 0
-344 -350 -352 0
-344 350 352 0
344 -350 352 0
344 350 -352 0
-353 -355 -357 0
-353 355 357 0
353 -355 357 0
353 355 -357 0
-354 -356 -358 0
-354 356 358 0
354 -356 358 0
354 356 -358 0
-319 -345 -359 0
-319 345 359 0
319 -345 359 0
319 345 -359 0
-320 -346 -360 0
-320 346 360 0
320 -346 360 0
320 346 -360 0
-193 -279 -361 0
-193 279 361 0
193 -279 361 0
193 279 -361 0
-194 -280 -362 0
-194 280 362 0
194 -280 362 0
194 280 -362 0
-209 -335 -361 0
-209 335 361 0
209 -335 361 0
209 335 -361 0
-210 -336 -362 0
-210 336 362 0
210 -336 362 0
210 336 -362 0
-137 -301 -363 0
-137 301 363 0
137 -301 363 0
137 301 -363 0
-138 -302 -364 0
-138 302 364 0
138 -302 364 0
138 302 -364 0
-153 -363 -365 0
-153 363 365 0
153 -363 365 0
153 363 -365 0
-154 -364 -366 0
-154 364 366 0
154 -364 366 0
154 364 -366 0
-357 -365 -367 0
-357 365 367 0
357 -365 367 0
357 365 -367 0
-358 -366 -368 0
-358 366 368 0
358 -366 368 0
358 366 -368 0
-247 -303 -359 0
-247 303 359 0
247 -303 359 0
247 303 -359 0
-248 -304 -360 0
-248 304 360 0
248 -304 360 0
248 304 -360 0
-369 -371 -373 0
-369 371 373 0
369 -371 373 0
369 371 -373 0
-370 -372 -374 0
-370 372 374 0
370 -372 374 0
370 372 -374 0
-369 -375 -377 0
-369 375 377 0
369 -375 377 0
369 375 -377 0
-370 -376 -378 0
-370 376 378 0
370 -376 378 0
370 376 -378 0
-379 -381 -383 0
-379 381 383 0
379 -381 383 0
379 381 -383 0
-380 -382 -384 0
-380 382 384 0
380 -382 384 0
380 382 -384 0
-385 -387 -389 0
-385 387 389 0
385 -387 389 0
385 387 -389 0
-386 -388 -390 0
-386 388 390 0
386 -388 390 0
386 388 -390 0
-371 -379 -391 0
-371 379 391 0
371 -379 391 0
371 379 -391 0
-372 -380 -392 0
-372 380 392 0
372 -380 392 0
372 380 -392 0
-375 -381 -385 0
-375 381 385 0
375 -381 385 0
375 381 -385 0
-376 -382 -386 0
-376 382 386 0
376 -382 386 0
376 382 -386 0
-387 -391 -393 0
-387 391 393 0
387 -391 393 0
387 391 -393 0
-388 -392 -394 0
-388 392 394 0
388 -392 394 0
388 392 -394 0
-395 -397 -399 0
-395 397 399 0
395 -397 399 0
395 397 -399 0
-396 -398 -400 0
-396 398 400 0
396 -398 400 0
396 398 -400 0
-373 -395 -401 0
-373 395 401 0
373 -395 401 0
373 395 -401 0
-374 -396 -402 0
-374 396 402 0
374 -396 402 0
374 396 -402 0
-389 -403 -405 0
-389 403 405 0
389 -403 405 0
389 403 -405 0
-390 -404 -406 0
-390 404 406 0
390 -404 406 0
390 404 -406 0
-403 -407 -409 0
-403 407 409 0
403 -407 409 0
403 407 -409 0
-404 -408 -410 0
-404 408 410 0
404 -408 410 0
404 408 -410 0
-397 -411 -413 0
-397 411 413 0
397 -411 413 0
397 411 -413 0
-398 -412 -414 0
-398 412 414 0
398 -412 414 0
398 412 -414 0
-401 -415 -417 0
-401 415 417 0
401 -415 417 0
401 415 -417 0
-402 -416 -418 0
-402 416 418 0
402 -416 418 0
402 416 -418 0
-405 -411 -419 0
-405 411 419 0
405 -411 419 0
405 411 -419 0
-406 -412 -420 0
-406 412 420 0
406 -412 420 0
406 412 -420 0
-407 -413 -415 0
-407 413 415 0
407 -413 415 0
407 413 -415 0
-408 -414 -416 0
-408 414 416 0
408 -414 416 0
408 414 -416 0
-417 -419 -421 0
-417 419 421 0
417 -419 421 0
417 419 -421 0
-418 -420 -422 0
-418 420 422 0
418 -420 422 0
418 420 -422 0
-383 -409 -423 0
-383 409 423 0
383 -409 423 0
383 409 -423 0
-384 -410 -424 0
-384 410 424 0
384 -410 424 0
384 410 -424 0
-425 -427 -429 0
-425 427 429 0
425 -427 429 0
425 427 -429 0
-426 -428 -430 0
-426 428 430 0
426 -428 430 0
426 428 -430 0
-377 -425 -431 0
-377 425 431 0
377 -425 431 0
377 425 -431 0
-378 -426 -432 0
-378 426 432 0
378 -426 432 0
378 426 -432 0
-433 -435 -437 0
-433 435 437 0
433 -435 437 0
433 435 -437 0
-434 -436 -438 0
-434 436 438 0
434 -436 438 0
434 436 -438 0
-439 -441 -443 0
-439 441 443 0
439 -441 443 0
439 441 -443 0
-440 -442 -444 0
-440 442 444 0
440 -442 444 0
440 442 -444 0
-427 -433 -445 0
-427 433 445 0
427 -433 445 0
427 433 -445 0
-428 -434 -446 0
-428 434 446 0
428 -434 446 0
428 434 -446 0
-431 -435 -439 0
-431 435 439 0
431 -435 439 0
431 435 -439 0
-432 -436 -440 0
-432 436 440 0
432 -436 440 0
432 436 -440 0
-441 -445 -447 0
-441 445 447 0
441 -445 447 0
441 445 -447 0
-442 -446 -448 0
-442 446 448 0
442 -446 448 0
442 446 -448 0
-449 -451 -453 0
-449 451 453 0
449 -451 453 0
449 451 -453 0
-450 -452 -454 0
-450 452 454 0
450 -452 454 0
450 452 -454 0
-429 -449 -455 0
-429 449 455 0
429 -449 455 0
429 449 -455 0
-430 -450 -456 0
-430 450 456 0
430 -450 456 0
430 450 -456 0
-443 -457 -459 0
-443 457 459 0
443 -457 459 0
443 457 -459 0
-444 -458 -460 0
-444 458 460 0
444 -458 460 0
444 458 -460 0
-457 -461 -463 0
-457 461 463 0
457 -461 463 0
457 461 -463 0
-458 -462 -464 0
-458 462 464 0
458 -462 464 0
458 462 -464 0
-451 -465 -467 0
-451 465 467 0
451 -465 467 0
451 465 -467 0
-452 -466 -468 0
-452 466 468 0
452 -466 468 0
452 466 -468 0
-455 -469 -471 0
-455 469 471 0
455 -469 471 0
455 469 -471 0
-456 -470 -472 0
-456 470 472 0
456 -470 472 0
456 470 -472 0
-459 -465 -473 0
-459 465 473 0
459 -465 473 0
459 465 -473 0
-460 -466 -474 0
-460 466 474 0
460 -466 474 0
460 466 -474 0
-461 -467 -469 0
-461 467 469 0
461 -467 469 0
461 467 -469 0
-462 -468 -470 0
-462 468 470 0
462 -468 470 0
462 468 -470 0
-471 -473 -475 0
-471 473 475 0
471 -473 475 0
471 473 -475 0
-472 -474 -476 0
-472 474 476 0
472 -474 476 0
472 474 -476 0
-437 -463 -477 0
-437 463 477 0
437 -463 477 0
437 463 -477 0
-438 -464 -478 0
-438 464 478 0
438 -464 478 0
438 464 -478 0
-313 -399 -479 0
-313 399 479 0
313 -399 479 0
313 399 -479 0
-314 -400 -480 0
-314 400 480 0
314 -400 480 0
314 400 -480 0
-329 -453 -479 0
-329 453 479 0
329 -453 479 0
329 453 -479 0
-330 -454 -480 0
-330 454 480 0
330 -454 480 0
330 454 -480 0
-257 -421 -481 0
-257 421 481 0
257 -421 481 0
257 421 -481 0
-258 -422 -482 0
-258 422 482 0
258 -422 482 0
258 422 -482 0
-273 -481 -483 0
-273 481 483 0
273 -481 483 0
273 481 -483 0
-274 -482 -484 0
-274 482 484 0
274 -482 484 0
274 482 -484 0
-393 -447 -485 0
-393 447 485 0
393 -447 485 0
393 447 -485 0
-394 -448 -486 0
-394 448 486 0
394 -448 486 0
394 448 -486 0
-475 -483 -485 0
-475 483 485 0
475 -483 485 0
475 483 -485 0
-476 -484 -486 0
-476 484 486 0
476 -484 486 0
476 484 -486 0
-367 -423 -477 0
-367 423 477 0
367 -423 477 0
367 423 -477 0
-368 -424 -478 0
-368 424 478 0
368 -424 478 0
368 424 -478 0
-487 -1 0
-487 -2 0
1 2 487 0
-488 -3 0
-488 -4 0
3 4 488 0
-489 -5 0
-489 -6 0
5 6 489 0
-490 -7 0
-490 -8 0
7 8 490 0
-491 -9 0
-491 -10 0
9 10 491 0
-492 -11 0
-492 -12 0
11 12 492 0
-493 -13 0
-493 -14 0
13 14 493 0
-494 -15 0
-494 -16 0
15 16 494 0
-495 -17 0
-495 -18 0
17 18 495 0
-496 -19 0
-496 -20 0
19 20 496 0
-497 -21 0
-497 -22 0
21 22 497 0
-498 -23 0
-498 -24 0
23 24 498 0
-499 -25 0
-499 -26 0
25 26 499 0
-500 -27 0
-500 -28 0
27 28 500 0
-501 -29 0
-501 -30 0
29 30 501 0
-502 -31 0
-502 -32 0
31 32 502 0
-503 -33 0
-503 -34 0
33 34 503 0
-504 -35 0
-504 -36 0
35 36 504 0
-505 -37 0
-505 -38 0
37 38 505 0
-506 -39 0
-506 -40 0
39 40 506 0
-507 -41 0
-507 -42 0
41 42 507 0
-508 -43 0
-508 -44 0
43 44 508 0
-509 -45 0
-509 -46 0
45 46 509 0
-510 -47 0
-510 -48 0
47 48 510 0
-511 -49 0
-511 -50 0
49 50 511 0
-512 -51 0
-512 -52 0
51 52 512 0
-513 -53 0
-513 -54 0
53 54 513 0
-514 -55 0
-514 -56 0
55 56 514 0
-515 -57 0
-515 -58 0
57 58 515 0
-516 -59 0
-516 -60 0
59 60 516 0
-517 -61 0
-517 -62 0
61 62 517 0
-518 -63 0
-518 -64 0
63 64 518 0
-519 -65 0
-519 -66 0
65 66 519 0
-520 -67 0
-520 -68 0
67 68 520 0
-521 -69 0
-521 -70 0
69 70 521 0
-522 -71 0
-522 -72 0
71 72 522 0
-523 -73 0
-523 -74 0
73 74 523 0
-524 -75 0
-524 -76 0
75 76 524 0
-525 -77 0
-525 -78 0
77 78 525 0
-526 -79 0
-526 -80 0
79 80 526 0
-527 -81 0
-527 -82 0
81 82 527 0
-528 -83 0
-528 -84 0
83 84 528 0
-529 -85 0
-529 -86 0
85 86 529 0
-530 -87 0
-530 -88 0
87 88 530 0
-531 -89 0
-531 -90 0
89 90 531 0
-532 -91 0
-532 -92 0
91 92 532 0
-533 -93 0
-533 -94 0
93 94 533 0
-534 -95 0
-534 -96 0
95 96 534 0
-535 -97 0
-535 -98 0
97 98 535 0
-536 -99 0
-536 -100 0
99 100 536 0
-537 -101 0
-537 -102 0
101 102 537 0
-538 -103 0
-538 -104 0
103 104 538 0
-539 -105 0
-539 -106 0
105 106 539 0
-540 -107 0
-540 -108 0
107 108 540 0
-541 -109 0
-541 -110 0
109 110 541 0
-542 -111 0
-542 -112 0
111 112 542 0
-543 -113 0
-543 -114 0
113 114 543 0
-544 -115 0
-544 -116 0
115 116 544 0
-545 -117 0
-545 -118 0
117 118 545 0
-546 -119 0
-546 -120 0
119 120 546 0
-547 -121 0
-547 -122 0
121 122 547 0
-548 -123 0
-548 -124 0
123 124 548 0
-549 -125 0
-549 -126 0
125 126 549 0
-550 -127 0
-550 -128 0
127 128 550 0
-551 -129 0
-551 -130 0
129 130 551 0
-552 -131 0
-552 -132 0
131 132 552 0
-553 -133 0
-553 -134 0
133 134 553 0
-554 -135 0
-554 -136 0
135 136 554 0
-555 -137 0
-555 -138 0
137 138 555 0
-556 -139 0
-556 -140 0
139 140 556 0
-557 -141 0
-557 -142 0
141 142 557 0
-558 -143 0
-558 -144 0
143 144 558 0
-559 -145 0
-559 -146 0
145 146 559 0
-560 -147 0
-560 -148 0
147 148 560 0
-561 -149 0
-561 -150 0
149 150 561 0
-562 -151 0
-562 -152 0
151 152 562 0
-563 -153 0
-563 -154 0
153 154 563 0
-564 -155 0
-564 -156 0
155 156 564 0
-565 -157 0
-565 -158 0
157 158 565 0
-566 -159 0
-566 -160 0
159 160 566 0
-567 -161 0
-567 -162 0
161 162 567 0
-568 -163 0
-568 -164 0
163 164 568 0
-569 -165 0
-569 -166 0
165 166 569 0
-570 -167 0
-570 -168 0
167 168 570 0
-571 -169 0
-571 -170 0
169 170 571 0
-572 -171 0
-572 -172 0
171 172 572 0
-573 -173 0
-573 -174 0
173 174 573 0
-574 -175 0
-574 -176 0
175 176 574 0
-575 -177 0
-575 -178 0
177 178 575 0
-576 -179 0
-576 -180 0
179 180 576 0
-577 -181 0
-577 -182 0
181 182 577 0
-578 -183 0
-578 -184 0
183 184 578 0
-579 -185 0
-579 -186 0
185 186 579 0
-580 -187 0
-580 -188 0
187 188 580 0
-581 -189 0
-581 -190 0
189 190 581 0
-582 -191 0
-582 -192 0
191 192 582 0
-583 -193 0
-583 -194 0
193 194 583 0
-584 -195 0
-584 -196 0
195 196 584 0
-585 -197 0
-585 -198 0
197 198 585 0
-586 -199 0
-586 -200 0
199 200 586 0
-587 -201 0
-587 -202 0
201 202 587 0
-588 -203 0
-588 -204 0
203 204 588 0
-589 -205 0
-589 -206 0
205 206 589 0
-590 -207 0
-590 -208 0
207 208 590 0
-591 -209 0
-591 -210 0
209 210 591 0
-592 -211 0
-592 -212 0
211 212 592 0
-593 -213 0
-593 -214 0
213 214 593 0
-594 -215 0
-594 -216 0
215 216 594 0
-595 -217 0
-595 -218 0
217 218 595 0
-596 -219 0
-596 -220 0
219 220 596 0
-597 -221 0
-597 -222 0
221 222 597 0
-598 -223 0
-598 -224 0
223 224 598 0
-599 -225 0
-599 -226 0
225 226 599 0
-600 -227 0
-600 -228 0
227 228 600 0
-601 -229 0
-601 -230 0
229 230 601 0
-602 -231 0
-602 -232 0
231 232 602 0
-603 -233 0
-603 -234 0
233 234 603 0
-604 -235 0
-604 -236 0
235 236 604 0
-605 -237 0
-605 -238 0
237 238 605 0
-606 -239 0
-606 -240 0
239 240 606 0
-607 -241 0
-607 -242 0
241 242 607 0
-608 -243 0
-608 -244 0
243 244 608 0
-609 -245 0
-609 -246 0
245 246 609 0
-610 -247 0
-610 -248 0
247 248 610 0
-611 -249 0
-611 -250 0
249 250 611 0
-612 -251 0
-612 -252 0
251 252 612 0
-613 -253 0
-613 -254 0
253 254 613 0
-614 -255 0
-614 -256 0
255 256 614 0
-615 -257 0
-615 -258 0
257 258 615 0
-616 -259 0
-616 -260 0
259 260 616 0
-617 -261 0
-617 -262 0
261 262 617 0
-618 -263 0
-618 -264 0
263 264 618 0
-619 -265 0
-619 -266 0
265 266 619 0
-620 -267 0
-620 -268 0
267 268 620 0
-621 -269 0
-621 -270 0
269 270 621 0
-622 -271 0
-622 -272 0
271 272 622 0
-623 -273 0
-623 -274 0
273 274 623 0
-624 -275 0
-624 -276 0
275 276 624 0
-625 -277 0
-625 -278 0
277 278 625 0
-626 -279 0
-626 -280 0
279 280 626 0
-627 -281 0
-627 -282 0
281 282 627 0
-628 -283 0
-628 -284 0
283 284 628 0
-629 -285 0
-629 -286 0
285 286 629 0
-630 -287 0
-630 -288 0
287 288 630 0
-631 -289 0
-631 -290 0
289 290 631 0
-632 -291 0
-632 -292 0
291 292 632 0
-633 -293 0
-633 -294 0
293 294 633 0
-634 -295 0
-634 -296 0
295 296 634 0
-635 -297 0
-635 -298 0
297 298 635 0
-636 -299 0
-636 -300 0
299 300 636 0
-637 -301 0
-637 -302 0
301 302 637 0
-638 -303 0
-638 -304 0
303 304 638 0
-639 -305 0
-639 -306 0
305 306 639 0
-640 -307 0
-640 -308 0
307 308 640 0
-641 -309 0
-641 -310 0
309 310 641 0
-642 -311 0
-642 -312 0
311 312 642 0
-643 -313 0
-643 -314 0
313 314 643 0
-644 -315 0
-644 -316 0
315 316 644 0
-645 -317 0
-645 -318 0
317 318 645 0
-646 -319 0
-646 -320 0
319 320 646 0
-647 -321 0
-647 -322 0
321 322 647 0
-648 -323 0
-648 -324 0
323 324 648 0
-649 -325 0
-649 -326 0
325 326 649 0
-650 -327 0
-650 -328 0
327 328 650 0
-651 -329 0
-651 -330 0
329 330 651 0
-652 -331 0
-652 -332 0
331 332 652 0
-653 -333 0
-653 -334 0
333 334 653 0
-654 -335 0
-654 -336 0
335 336 654 0
-655 -337 0
-655 -338 0
337 338 655 0
-656 -339 0
-656 -340 0
339 340 656 0
-657 -341 0
-657 -342 0
341 342 657 0
-658 -343 0
-658 -344 0
343 344 658 0
-659 -345 0
-659 -346 0
345 346 659 0
-660 -347 0
-660 -348 0
347 348 660 0
-661 -349 0
-661 -350 0
349 350 661 0
-662 -351 0
-662 -352 0
351 352 662 0
-663 -353 0
-663 -354 0
353 354 663 0
-664 -355 0
-664 -356 0
355 356 664 0
-665 -357 0
-665 -358 0
357 358 665 0
-666 -359 0
-666 -360 0
359 360 666 0
-667 -361 0
-667 -362 0
361 362 667 0
-668 -363 0
-668 -364 0
363 364 668 0
-669 -365 0
-669 -366 0
365 366 669 0
-670 -367 0
-670 -368 0
367 368 670 0
-671 -369 0
-671 -370 0
369 370 671 0
-672 -371 0
-672 -372 0
371 372 672 0
-673 -373 0
-673 -374 0
373 374 673 0
-674 -375 0
-674 -376 0
375 376 674 0
-675 -377 0
-675 -378 0
377 378 675 0
-676 -379 0
-676 -380 0
379 380 676 0
-677 -381 0
-677 -382 0
381 382 677 0
-678 -383 0
-678 -384 0
383 384 678 0
-679 -385 0
-679 -386 0
385 386 679 0
-680 -387 0
-680 -388 0
387 388 680 0
-681 -389 0
-681 -390 0
389 390 681 0
-682 -391 0
-682 -392 0
391 392 682 0
-683 -393 0
-683 -394 0
393 394 683 0
-684 -395 0
-684 -396 0
395 396 684 0
-685 -397 0
-685 -398 0
397 398 685 0
-686 -399 0
-686 -400 0
399 400 686 0
-687 -401 0
-687 -402 0
401 402 687 0
-688 -403 0
-688 -404 0
403 404 688 0
-689 -405 0
-689 -406 0
405 406 689 0
-690 -407 0
-690 -408 0
407 408 690 0
-691 -409 0
-691 -410 0
409 410 691 0
-692 -411 0
-692 -412 0
411 412 692 0
-693 -413 0
-693 -414 0
413 414 693 0
-694 -415 0
-694 -416 0
415 416 694 0
-695 -417 0
-695 -418 0
417 418 695 0
-696 -419 0
-696 -420 0
419 420 696 0
-697 -421 0
-697 -422 0
421 422 697 0
-698 -423 0
-698 -424 0
423 424 698 0
-699 -425 0
-699 -426 0
425 426 699 0
-700 -427 0
-700 -428 0
427 428 700 0
-701 -429 0
-701 -430 0
429 430 701 0
-702 -431 0
-702 -432 0
431 432 702 0
-703 -433 0
-703 -434 0
433 434 703 0
-704 -435 0
-704 -436 0
435 436 704 0
-705 -437 0
-705 -438 0
437 438 705 0
-706 -439 0
-706 -440 0
439 440 706 0
-707 -441 0
-707 -442 0
441 442 707 0
-708 -443 0
-708 -444 0
443 444 708 0
-709 -445 0
-709 -446 0
445 446 709 0
-710 -447 0
-710 -448 0
447 448 710 0
-711 -449 0
-711 -450 0
449 450 711 0
-712 -451 0
-712 -452 0
451 452 712 0
-713 -453 0
-713 -454 0
453 454 713 0
-714 -455 0
-714 -456 0
455 456 714 0
-715 -457 0
-715 -458 0
457 458 715 0
-716 -459 0
-716 -460 0
459 460 716 0
-717 -461 0
-717 -462 0
461 462 717 0
-718 -463 0
-718 -464 0
463 464 718 0
-719 -465 0
-719 -466 0
465 466 719 0
-720 -467 0
-720 -468 0
467 468 720 0
-721 -469 0
-721 -470 0
469 470 721 0
-722 -471 0
-722 -472 0
471 472 722 0
-723 -473 0
-723 -474 0
473 474 723 0
-724 -475 0
-724 -476 0
475 476 724 0
-725 -477 0
-725 -478 0
477 478 725 0
-726 -479 0
-726 -480 0
479 480 726 0
-727 -481 0
-727 -482 0
481 482 727 0
-728 -483 0
-728 -484 0
483 484 728 0
-729 -485 0
-729 -486 0
485 486 729 0
-487 730 0
-488 733 0
-730 733 0
-488 -730 734 0
-489 736 0
-733 736 0
-489 -733 737 0
-734 737 0
-489 -734 738 0
-490 739 0
-736 739 0
-490 -736 740 0
-737 740 0
-490 -737 741 0
-738 741 0
-491 742 0
-739 742 0
-491 -739 743 0
-740 743 0
-491 -740 744 0
-741 744 0
-492 745 0
-742 745 0
-492 -742 746 0
-743 746 0
-492 -743 747 0
-744 747 0
-493 748 0
-745 748 0
-493 -745 749 0
-746 749 0
-493 -746 750 0
-747 750 0
-494 751 0
-748 751 0
-494 -748 752 0
-749 752 0
-494 -749 753 0
-750 753 0
-495 754 0
-751 754 0
-495 -751 755 0
-752 755 0
-495 -752 756 0
-753 756 0
-496 757 0
-754 757 0
-496 -754 758 0
-755 758 0
-496 -755 759 0
-756 759 0
-497 760 0
-757 760 0
-497 -757 761 0
-758 761 0
-497 -758 762 0
-759 762 0
-498 763 0
-760 763 0
-498 -760 764 0
-761 764 0
-498 -761 765 0
-762 765 0
-499 766 0
-763 766 0
-499 -763 767 0
-764 767 0
-499 -764 768 0
-765 768 0
-500 769 0
-766 769 0
-500 -766 770 0
-767 770 0
-500 -767 771 0
-768 771 0
-501 772 0
-769 772 0
-501 -769 773 0
-770 773 0
-501 -770 774 0
-771 774 0
-502 775 0
-772 775 0
-502 -772 776 0
-773 776 0
-502 -773 777 0
-774 777 0
-503 778 0
-775 778 0
-503 -775 779 0
-776 779 0
-503 -776 780 0
-777 780 0
-504 781 0
-778 781 0
-504 -778 782 0
-779 782 0
-504 -779 783 0
-780 783 0
-505 784 0
-781 784 0
-505 -781 785 0
-782 785 0
-505 -782 786 0
-783 786 0
-506 787 0
-784 787 0
-506 -784 788 0
-785 788 0
-506 -785 789 0
-786 789 0
-507 790 0
-787 790 0
-507 -787 791 0
-788 791 0
-507 -788 792 0
-789 792 0
-508 793 0
-790 793 0
-508 -790 794 0
-791 794 0
-508 -791 795 0
-792 795 0
-509 796 0
-793 796 0
-509 -793 797 0
-794 797 0
-509 -794 798 0
-795 798 0
-510 799 0
-796 799 0
-510 -796 800 0
-797 800 0
-510 -797 801 0
-798 801 0
-511 802 0
-799 802 0
-511 -799 803 0
-800 803 0
-511 -800 804 0
-801 804 0
-512 805 0
-802 805 0
-512 -802 806 0
-803 806 0
-512 -803 807 0
-804 807 0
-513 808 0
-805 808 0
-513 -805 809 0
-806 809 0
-513 -806 810 0
-807 810 0
-514 811 0
-808 811 0
-514 -808 812 0
-809 812 0
-514 -809 813 0
-810 813 0
-515 814 0
-811 814 0
-515 -811 815 0
-812 815 0
-515 -812 816 0
-813 816 0
-516 817 0
-814 817 0
-516 -814 818 0
-815 818 0
-516 -815 819 0
-816 819 0
-517 820 0
-817 820 0
-517 -817 821 0
-818 821 0
-517 -818 822 0
-819 822 0
-518 823 0
-820 823 0
-518 -820 824 0
-821 824 0
-518 -821 825 0
-822 825 0
-519 826 0
-823 826 0
-519 -823 827 0
-824 827 0
-519 -824 828 0
-825 828 0
-520 829 0
-826 829 0
-520 -826 830 0
-827 830 0
-520 -827 831 0
-828 831 0
-521 832 0
-829 832 0
-521 -829 833 0
-830 833 0
-521 -830 834 0
-831 834 0
-522 835 0
-832 835 0
-522 -832 836 0
-833 836 0
-522 -833 837 0
-834 837 0
-523 838 0
-835 838 0
-523 -835 839 0
-836 839 0
-523 -836 840 0
-837 840 0
-524 841 0
-838 841 0
-524 -838 842 0
-839 842 0
-524 -839 843 0
-840 843 0
-525 844 0
-841 844 0
-525 -841 845 0
-842 845 0
-525 -842 846 0
-843 846 0
-526 847 0
-844 847 0
-526 -844 848 0
-845 848 0
-526 -845 849 0
-846 849 0
-527 850 0
-847 850 0
-527 -847 851 0
-848 851 0
-527 -848 852 0
-849 852 0
-528 853 0
-850 853 0
-528 -850 854 0
-851 854 0
-528 -851 855 0
-852 855 0
-529 856 0
-853 856 0
-529 -853 857 0
-854 857 0
-529 -854 858 0
-855 858 0
-530 859 0
-856 859 0
-530 -856 860 0
-857 860 0
-530 -857 861 0
-858 861 0
-531 862 0
-859 862 0
-531 -859 863 0
-860 863 0
-531 -860 864 0
-861 864 0
-532 865 0
-862 865 0
-532 -862 866 0
-863 866 0
-532 -863 867 0
-864 867 0
-533 868 0
-865 868 0
-533 -865 869 0
-866 869 0
-533 -866 870 0
-867 870 0
-534 871 0
-868 871 0
-534 -868 872 0
-869 872 0
-534 -869 873 0
-870 873 0
-535 874 0
-871 874 0
-535 -871 875 0
-872 875 0
-535 -872 876 0
-873 876 0
-536 877 0
-874 877 0
-536 -874 878 0
-875 878 0
-536 -875 879 0
-876 879 0
-537 880 0
-877 880 0
-537 -877 881 0
-878 881 0
-537 -878 882 0
-879 882 0
-538 883 0
-880 883 0
-538 -880 884 0
-881 884 0
-538 -881 885 0
-882 885 0
-539 886 0
-883 886 0
-539 -883 887 0
-884 887 0
-539 -884 888 0
-885 888 0
-540 889 0
-886 889 0
-540 -886 890 0
-887 890 0
-540 -887 891 0
-888 891 0
-541 892 0
-889 892 0
-541 -889 893 0
-890 893 0
-541 -890 894 0
-891 894 0
-542 895 0
-892 895 0
-542 -892 896 0
-893 896 0
-542 -893 897 0
-894 897 0
-543 898 0
-895 898 0
-543 -895 899 0
-896 899 0
-543 -896 900 0
-897 900 0
-544 901 0
-898 901 0
-544 -898 902 0
-899 902 0
-544 -899 903 0
-900 903 0
-545 904 0
-901 904 0
-545 -901 905 0
-902 905 0
-545 -902 906 0
-903 906 0
-546 907 0
-904 907 0
-546 -904 908 0
-905 908 0
-546 -905 909 0
-906 909 0
-547 910 0
-907 910 0
-547 -907 911 0
-908 911 0
-547 -908 912 0
-909 912 0
-548 913 0
-910 913 0
-548 -910 914 0
-911 914 0
-548 -911 915 0
-912 915 0
-549 916 0
-913 916 0
-549 -913 917 0
-914 917 0
-549 -914 918 0
-915 918 0
-550 919 0
-916 919 0
-550 -916 920 0
-917 920 0
-550 -917 921 0
-918 921 0
-551 922 0
-919 922 0
-551 -919 923 0
-920 923 0
-551 -920 924 0
-921 924 0
-552 925 0
-922 925 0
-552 -922 926 0
-923 926 0
-552 -923 927 0
-924 927 0
-553 928 0
-925 928 0
-553 -925 929 0
-926 929 0
-553 -926 930 0
-927 930 0
-554 931 0
-928 931 0
-554 -928 932 0
-929 932 0
-554 -929 933 0
-930 933 0
-555 934 0
-931 934 0
-555 -931 935 0
-932 935 0
-555 -932 936 0
-933 936 0
-556 937 0
-934 937 0
-556 -934 938 0
-935 938 0
-556 -935 939 0
-936 939 0
-557 940 0
-937 940 0
-557 -937 941 0
-938 941 0
-557 -938 942 0
-939 942 0
-558 943 0
-940 943 0
-558 -940 944 0
-941 944 0
-558 -941 945 0
-942 945 0
-559 946 0
-943 946 0
-559 -943 947 0
-944 947 0
-559 -944 948 0
-945 948 0
-560 949 0
-946 949 0
-560 -946 950 0
-947 950 0
-560 -947 951 0
-948 951 0
-561 952 0
-949 952 0
-561 -949 953 0
-950 953 0
-561 -950 954 0
-951 954 0
-562 955 0
-952 955 0
-562 -952 956 0
-953 956 0
-562 -953 957 0
-954 957 0
-563 958 0
-955 958 0
-563 -955 959 0
-956 959 0
-563 -956 960 0
-957 960 0
-564 961 0
-958 961 0
-564 -958 962 0
-959 962 0
-564 -959 963 0
-960 963 0
-565 964 0
-961 964 0
-565 -961 965 0
-962 965 0
-565 -962 966 0
-963 966 0
-566 967 0
-964 967 0
-566 -964 968 0
-965 968 0
-566 -965 969 0
-966 969 0
-567 970 0
-967 970 0
-567 -967 971 0
-968 971 0
-567 -968 972 0
-969 972 0
-568 973 0
-970 973 0
-568 -970 974 0
-971 974 0
-568 -971 975 0
-972 975 0
-569 976 0
-973 976 0
-569 -973 977 0
-974 977 0
-569 -974 978 0
-975 978 0
-570 979 0
-976 979 0
-570 -976 980 0
-977 980 0
-570 -977 981 0
-978 981 0
-571 982 0
-979 982 0
-571 -979 983 0
-980 983 0
-571 -980 984 0
-981 984 0
-572 985 0
-982 985 0
-572 -982 986 0
-983 986 0
-572 -983 987 0
-984 987 0
-573 988 0
-985 988 0
-573 -985 989 0
-986 989 0
-573 -986 990 0
-987 990 0
-574 991 0
-988 991 0
-574 -988 992 0
-989 992 0
-574 -989 993 0
-990 993 0
-575 994 0
-991 994 0
-575 -991 995 0
-992 995 0
-575 -992 996 0
-993 996 0
-576 997 0
-994 997 0
-576 -994 998 0
-995 998 0
-576 -995 999 0
-996 999 0
-577 1000 0
-997 1000 0
-577 -997 1001 0
-998 1001 0
-577 -998 1002 0
-999 1002 0
-578 1003 0
-1000 1003 0
-578 -1000 1004 0
-1001 1004 0
-578 -1001 1005 0
-1002 1005 0
-579 1006 0
-1003 1006 0
-579 -1003 1007 0
-1004 1007 0
-579 -1004 1008 0
-1005 1008 0
-580 1009 0
-1006 1009 0
-580 -1006 1010 0
-1007 1010 0
-580 -1007 1011 0
-1008 1011 0
-581 1012 0
-1009 1012 0
-581 -1009 1013 0
-1010 1013 0
-581 -1010 1014 0
-1011 1014 0
-582 1015 0
-1012 1015 0
-582 -1012 1016 0
-1013 1016 0
-582 -1013 1017 0
-1014 1017 0
-583 1018 0
-1015 1018 0
-583 -1015 1019 0
-1016 1019 0
-583 -1016 1020 0
-1017 1020 0
-584 1021 0
-1018 1021 0
-584 -1018 1022 0
-1019 1022 0
-584 -1019 1023 0
-1020 1023 0
-585 1024 0
-1021 1024 0
-585 -1021 1025 0
-1022 1025 0
-585 -1022 1026 0
-1023 1026 0
-586 1027 0
-1024 1027 0
-586 -1024 1028 0
-1025 1028 0
-586 -1025 1029 0
-1026 1029 0
-587 1030 0
-1027 1030 0
-587 -1027 1031 0
-1028 1031 0
-587 -1028 1032 0
-1029 1032 0
-588 1033 0
-1030 1033 0
-588 -1030 1034 0
-1031 1034 0
-588 -1031 1035 0
-1032 1035 0
-589 1036 0
-1033 1036 0
-589 -1033 1037 0
-1034 1037 0
-589 -1034 1038 0
-1035 1038 0
-590 1039 0
-1036 1039 0
-590 -1036 1040 0
-1037 1040 0
-590 -1037 1041 0
-1038 1041 0
-591 1042 0
-1039 1042 0
-591 -1039 1043 0
-1040 1043 0
-591 -1040 1044 0
-1041 1044 0
-592 1045 0
-1042 1045 0
-592 -1042 1046 0
-1043 1046 0
-592 -1043 1047 0
-1044 1047 0
-593 1048 0
-1045 1048 0
-593 -1045 1049 0
-1046 1049 0
-593 -1046 1050 0
-1047 1050 0
-594 1051 0
-1048 1051 0
-594 -1048 1052 0
-1049 1052 0
-594 -1049 1053 0
-1050 1053 0
-595 1054 0
-1051 1054 0
-595 -1051 1055 0
-1052 1055 0
-595 -1052 1056 0
-1053 1056 0
-596 1057 0
-1054 1057 0
-596 -1054 1058 0
-1055 1058 0
-596 -1055 1059 0
-1056 1059 0
-597 1060 0
-1057 1060 0
-597 -1057 1061 0
-1058 1061 0
-597 -1058 1062 0
-1059 1062 0
-598 1063 0
-1060 1063 0
-598 -1060 1064 0
-1061 1064 0
-598 -1061 1065 0
-1062 1065 0
-599 1066 0
-1063 1066 0
-599 -1063 1067 0
-1064 1067 0
-599 -1064 1068 0
-1065 1068 0
-600 1069 0
-1066 1069 0
-600 -1066 1070 0
-1067 1070 0
-600 -1067 1071 0
-1068 1071 0
-601 1072 0
-1069 1072 0
-601 -1069 1073 0
-1070 1073 0
-601 -1070 1074 0
-1071 1074 0
-602 1075 0
-1072 1075 0
-602 -1072 1076 0
-1073 1076 0
-602 -1073 1077 0
-1074 1077 0
-603 1078 0
-1075 1078 0
-603 -1075 1079 0
-1076 1079 0
-603 -1076 1080 0
-1077 1080 0
-604 1081 0
-1078 1081 0
-604 -1078 1082 0
-1079 1082 0
-604 -1079 1083 0
-1080 1083 0
-605 1084 0
-1081 1084 0
-605 -1081 1085 0
-1082 1085 0
-605 -1082 1086 0
-1083 1086 0
-606 1087 0
-1084 1087 0
-606 -1084 1088 0
-1085 1088 0
-606 -1085 1089 0
-1086 1089 0
-607 1090 0
-1087 1090 0
-607 -1087 1091 0
-1088 1091 0
-607 -1088 1092 0
-1089 1092 0
-608 1093 0
-1090 1093 0
-608 -1090 1094 0
-1091 1094 0
-608 -1091 1095 0
-1092 1095 0
-609 1096 0
-1093 1096 0
-609 -1093 1097 0
-1094 1097 0
-609 -1094 1098 0
-1095 1098 0
-610 1099 0
-1096 1099 0
-610 -1096 1100 0
-1097 1100 0
-610 -1097 1101 0
-1098 1101 0
-611 1102 0
-1099 1102 0
-611 -1099 1103 0
-1100 1103 0
-611 -1100 1104 0
-1101 1104 0
-612 1105 0
-1102 1105 0
-612 -1102 1106 0
-1103 1106 0
-612 -1103 1107 0
-1104 1107 0
-613 1108 0
-1105 1108 0
-613 -1105 1109 0
-1106 1109 0
-613 -1106 1110 0
-1107 1110 0
-614 1111 0
-1108 1111 0
-614 -1108 1112 0
-1109 1112 0
-614 -1109 1113 0
-1110 1113 0
-615 1114 0
-1111 1114 0
-615 -1111 1115 0
-1112 1115 0
-615 -1112 1116 0
-1113 1116 0
-616 1117 0
-1114 1117 0
-616 -1114 1118 0
-1115 1118 0
-616 -1115 1119 0
-1116 1119 0
-617 1120 0
-1117 1120 0
-617 -1117 1121 0
-1118 1121 0
-617 -1118 1122 0
-1119 1122 0
-618 1123 0
-1120 1123 0
-618 -1120 1124 0
-1121 1124 0
-618 -1121 1125 0
-1122 1125 0
-619 1126 0
-1123 1126 0
-619 -1123 1127 0
-1124 1127 0
-619 -1124 1128 0
-1125 1128 0
-620 1129 0
-1126 1129 0
-620 -1126 1130 0
-1127 1130 0
-620 -1127 1131 0
-1128 1131 0
-621 1132 0
-1129 1132 0
-621 -1129 1133 0
-1130 1133 0
-621 -1130 1134 0
-1131 1134 0
-622 1135 0
-1132 1135 0
-622 -1132 1136 0
-1133 1136 0
-622 -1133 1137 0
-1134 1137 0
-623 1138 0
-1135 1138 0
-623 -1135 1139 0
-1136 1139 0
-623 -1136 1140 0
-1137 1140 0
-624 1141 0
-1138 1141 0
-624 -1138 1142 0
-1139 1142 0
-624 -1139 1143 0
-1140 1143 0
-625 1144 0
-1141 1144 0
-625 -1141 1145 0
-1142 1145 0
-625 -1142 1146 0
-1143 1146 0
-626 1147 0
-1144 1147 0
-626 -1144 1148 0
-1145 1148 0
-626 -1145 1149 0
-1146 1149 0
-627 1150 0
-1147 1150 0
-627 -1147 1151 0
-1148 1151 0
-627 -1148 1152 0
-1149 1152 0
-628 1153 0
-1150 1153 0
-628 -1150 1154 0
-1151 1154 0
-628 -1151 1155 0
-1152 1155 0
-629 1156 0
-1153 1156 0
-629 -1153 1157 0
-1154 1157 0
-629 -1154 1158 0
-1155 1158 0
-630 1159 0
-1156 1159 0
-630 -1156 1160 0
-1157 1160 0
-630 -1157 1161 0
-1158 1161 0
-631 1162 0
-1159 1162 0
-631 -1159 1163 0
-1160 1163 0
-631 -1160 1164 0
-1161 1164 0
-632 1165 0
-1162 1165 0
-632 -1162 1166 0
-1163 1166 0
-632 -1163 1167 0
-1164 1167 0
-633 1168 0
-1165 1168 0
-633 -1165 1169 0
-1166 1169 0
-633 -1166 1170 0
-1167 1170 0
-634 1171 0
-1168 1171 0
-634 -1168 1172 0
-1169 1172 0
-634 -1169 1173 0
-1170 1173 0
-635 1174 0
-1171 1174 0
-635 -1171 1175 0
-1172 1175 0
-635 -1172 1176 0
-1173 1176 0
-636 1177 0
-1174 1177 0
-636 -1174 1178 0
-1175 1178 0
-636 -1175 1179 0
-1176 1179 0
-637 1180 0
-1177 1180 0
-637 -1177 1181 0
-1178 1181 0
-637 -1178 1182 0
-1179 1182 0
-638 1183 0
-1180 1183 0
-638 -1180 1184 0
-1181 1184 0
-638 -1181 1185 0
-1182 1185 0
-639 1186 0
-1183 1186 0
-639 -1183 1187 0
-1184 1187 0
-639 -1184 1188 0
-1185 1188 0
-640 1189 0
-1186 1189 0
-640 -1186 1190 0
-1187 1190 0
-640 -1187 1191 0
-1188 1191 0
-641 1192 0
-1189 1192 0
-641 -1189 1193 0
-1190 1193 0
-641 -1190 1194 0
-1191 1194 0
-642 1195 0
-1192 1195 0
-642 -1192 1196 0
-1193 1196 0
-642 -1193 1197 0
-1194 1197 0
-643 1198 0
-1195 1198 0
-643 -1195 1199 0
-1196 1199 0
-643 -1196 1200 0
-1197 1200 0
-644 1201 0
-1198 1201 0
-644 -1198 1202 0
-1199 1202 0
-644 -1199 1203 0
-1200 1203 0
-645 1204 0
-1201 1204 0
-645 -1201 1205 0
-1202 1205 0
-645 -1202 1206 0
-1203 1206 0
-646 1207 0
-1204 1207 0
-646 -1204 1208 0
-1205 1208 0
-646 -1205 1209 0
-1206 1209 0
-647 1210 0
-1207 1210 0
-647 -1207 1211 0
-1208 1211 0
-647 -1208 1212 0
-1209 1212 0
-648 1213 0
-1210 1213 0
-648 -1210 1214 0
-1211 1214 0
-648 -1211 1215 0
-1212 1215 0
-649 1216 0
-1213 1216 0
-649 -1213 1217 0
-1214 1217 0
-649 -1214 1218 0
-1215 1218 0
-650 1219 0
-1216 1219 0
-650 -1216 1220 0
-1217 1220 0
-650 -1217 1221 0
-1218 1221 0
-651 1222 0
-1219 1222 0
-651 -1219 1223 0
-1220 1223 0
-651 -1220 1224 0
-1221 1224 0
-652 1225 0
-1222 1225 0
-652 -1222 1226 0
-1223 1226 0
-652 -1223 1227 0
-1224 1227 0
-653 1228 0
-1225 1228 0
-653 -1225 1229 0
-1226 1229 0
-653 -1226 1230 0
-1227 1230 0
-654 1231 0
-1228 1231 0
-654 -1228 1232 0
-1229 1232 0
-654 -1229 1233 0
-1230 1233 0
-655 1234 0
-1231 1234 0
-655 -1231 1235 0
-1232 1235 0
-655 -1232 1236 0
-1233 1236 0
-656 1237 0
-1234 1237 0
-656 -1234 1238 0
-1235 1238 0
-656 -1235 1239 0
-1236 1239 0
-657 1240 0
-1237 1240 0
-657 -1237 1241 0
-1238 1241 0
-657 -1238 1242 0
-1239 1242 0
-658 1243 0
-1240 1243 0
-658 -1240 1244 0
-1241 1244 0
-658 -1241 1245 0
-1242 1245 0
-659 1246 0
-1243 1246 0
-659 -1243 1247 0
-1244 1247 0
-659 -1244 1248 0
-1245 1248 0
-660 1249 0
-1246 1249 0
-660 -1246 1250 0
-1247 1250 0
-660 -1247 1251 0
-1248 1251 0
-661 1252 0
-1249 1252 0
-661 -1249 1253 0
-1250 1253 0
-661 -1250 1254 0
-1251 1254 0
-662 1255 0
-1252 1255 0
-662 -1252 1256 0
-1253 1256 0
-662 -1253 1257 0
-1254 1257 0
-663 1258 0
-1255 1258 0
-663 -1255 1259 0
-1256 1259 0
-663 -1256 1260 0
-1257 1260 0
-664 1261 0
-1258 1261 0
-664 -1258 1262 0
-1259 1262 0
-664 -1259 1263 0
-1260 1263 0
-665 1264 0
-1261 1264 0
-665 -1261 1265 0
-1262 1265 0
-665 -1262 1266 0
-1263 1266 0
-666 1267 0
-1264 1267 0
-666 -1264 1268 0
-1265 1268 0
-666 -1265 1269 0
-1266 1269 0
-667 1270 0
-1267 1270 0
-667 -1267 1271 0
-1268 1271 0
-667 -1268 1272 0
-1269 1272 0
-668 1273 0
-1270 1273 0
-668 -1270 1274 0
-1271 1274 0
-668 -1271 1275 0
-1272 1275 0
-669 1276 0
-1273 1276 0
-669 -1273 1277 0
-1274 1277 0
-669 -1274 1278 0
-1275 1278 0
-670 1279 0
-1276 1279 0
-670 -1276 1280 0
-1277 1280 0
-670 -1277 1281 0
-1278 1281 0
-671 1282 0
-1279 1282 0
-671 -1279 1283 0
-1280 1283 0
-671 -1280 1284 0
-1281 1284 0
-672 1285 0
-1282 1285 0
-672 -1282 1286 0
-1283 1286 0
-672 -1283 1287 0
-1284 1287 0
-673 1288 0
-1285 1288 0
-673 -1285 1289 0
-1286 1289 0
-673 -1286 1290 0
-1287 1290 0
-674 1291 0
-1288 1291 0
-674 -1288 1292 0
-1289 1292 0
-674 -1289 1293 0
-1290 1293 0
-675 1294 0
-1291 1294 0
-675 -1291 1295 0
-1292 1295 0
-675 -1292 1296 0
-1293 1296 0
-676 1297 0
-1294 1297 0
-676 -1294 1298 0
-1295 1298 0
-676 -1295 1299 0
-1296 1299 0
-677 1300 0
-1297 1300 0
-677 -1297 1301 0
-1298 1301 0
-677 -1298 1302 0
-1299 1302 0
-678 1303 0
-1300 1303 0
-678 -1300 1304 0
-1301 1304 0
-678 -1301 1305 0
-1302 1305 0
-679 1306 0
-1303 1306 0
-679 -1303 1307 0
-1304 1307 0
-679 -1304 1308 0
-1305 1308 0
-680 1309 0
-1306 1309 0
-680 -1306 1310 0
-1307 1310 0
-680 -1307 1311 0
-1308 1311 0
-681 1312 0
-1309 1312 0
-681 -1309 1313 0
-1310 1313 0
-681 -1310 1314 0
-1311 1314 0
-682 1315 0
-1312 1315 0
-682 -1312 1316 0
-1313 1316 0
-682 -1313 1317 0
-1314 1317 0
-683 1318 0
-1315 1318 0
-683 -1315 1319 0
-1316 1319 0
-683 -1316 1320 0
-1317 1320 0
-684 1321 0
-1318 1321 0
-684 -1318 1322 0
-1319 1322 0
-684 -1319 1323 0
-1320 1323 0
-685 1324 0
-1321 1324 0
-685 -1321 1325 0
-1322 1325 0
-685 -1322 1326 0
-1323 1326 0
-686 1327 0
-1324 1327 0
-686 -1324 1328 0
-1325 1328 0
-686 -1325 1329 0
-1326 1329 0
-687 1330 0
-1327 1330 0
-687 -1327 1331 0
-1328 1331 0
-687 -1328 1332 0
-1329 1332 0
-688 1333 0
-1330 1333 0
-688 -1330 1334 0
-1331 1334 0
-688 -1331 1335 0
-1332 1335 0
-689 1336 0
-1333 1336 0
-689 -1333 1337 0
-1334 1337 0
-689 -1334 1338 0
-1335 1338 0
-690 1339 0
-1336 1339 0
-690 -1336 1340 0
-1337 1340 0
-690 -1337 1341 0
-1338 1341 0
-691 1342 0
-1339 1342 0
-691 -1339 1343 0
-1340 1343 0
-691 -1340 1344 0
-1341 1344 0
-692 1345 0
-1342 1345 0
-692 -1342 1346 0
-1343 1346 0
-692 -1343 1347 0
-1344 1347 0
-693 1348 0
-1345 1348 0
-693 -1345 1349 0
-1346 1349 0
-693 -1346 1350 0
-1347 1350 0
-694 1351 0
-1348 1351 0
-694 -1348 1352 0
-1349 1352 0
-694 -1349 1353 0
-1350 1353 0
-695 1354 0
-1351 1354 0
-695 -1351 1355 0
-1352 1355 0
-695 -1352 1356 0
-1353 1356 0
-696 1357 0
-1354 1357 0
-696 -1354 1358 0
-1355 1358 0
-696 -1355 1359 0
-1356 1359 0
-697 1360 0
-1357 1360 0
-697 -1357 1361 0
-1358 1361 0
-697 -1358 1362 0
-1359 1362 0
-698 1363 0
-1360 1363 0
-698 -1360 1364 0
-1361 1364 0
-698 -1361 1365 0
-1362 1365 0
-699 1366 0
-1363 1366 0
-699 -1363 1367 0
-1364 1367 0
-699 -1364 1368 0
-1365 1368 0
-700 1369 0
-1366 1369 0
-700 -1366 1370 0
-1367 1370 0
-700 -1367 1371 0
-1368 1371 0
-701 1372 0
-1369 1372 0
-701 -1369 1373 0
-1370 1373 0
-701 -1370 1374 0
-1371 1374 0
-702 1375 0
-1372 1375 0
-702 -1372 1376 0
-1373 1376 0
-702 -1373 1377 0
-1374 1377 0
-703 1378 0
-1375 1378 0
-703 -1375 1379 0
-1376 1379 0
-703 -1376 1380 0
-1377 1380 0
-704 1381 0
-1378 1381 0
-704 -1378 1382 0
-1379 1382 0
-704 -1379 1383 0
-1380 1383 0
-705 1384 0
-1381 1384 0
-705 -1381 1385 0
-1382 1385 0
-705 -1382 1386 0
-1383 1386 0
-706 1387 0
-1384 1387 0
-706 -1384 1388 0
-1385 1388 0
-706 -1385 1389 0
-1386 1389 0
-707 1390 0
-1387 1390 0
-707 -1387 1391 0
-1388 1391 0
-707 -1388 1392 0
-1389 1392 0
-708 1393 0
-1390 1393 0
-708 -1390 1394 0
-1391 1394 0
-708 -1391 1395 0
-1392 1395 0
-709 1396 0
-1393 1396 0
-709 -1393 1397 0
-1394 1397 0
-709 -1394 1398 0
-1395 1398 0
-710 1399 0
-1396 1399 0
-710 -1396 1400 0
-1397 1400 0
-710 -1397 1401 0
-1398 1401 0
-711 1402 0
-1399 1402 0
-711 -1399 1403 0
-1400 1403 0
-711 -1400 1404 0
-1401 1404 0
-712 1405 0
-1402 1405 0
-712 -1402 1406 0
-1403 1406 0
-712 -1403 1407 0
-1404 1407 0
-713 1408 0
-1405 1408 0
-713 -1405 1409 0
-1406 1409 0
-713 -1406 1410 0
-1407 1410 0
-714 1411 0
-1408 1411 0
-714 -1408 1412 0
-1409 1412 0
-714 -1409 1413 0
-1410 1413 0
-715 1414 0
-1411 1414 0
-715 -1411 1415 0
-1412 1415 0
-715 -1412 1416 0
-1413 1416 0
-716 1417 0
-1414 1417 0
-716 -1414 1418 0
-1415 1418 0
-716 -1415 1419 0
-1416 1419 0
-717 1420 0
-1417 1420 0
-717 -1417 1421 0
-1418 1421 0
-717 -1418 1422 0
-1419 1422 0
-718 1423 0
-1420 1423 0
-718 -1420 1424 0
-1421 1424 0
-718 -1421 1425 0
-1422 1425 0
-719 1426 0
-1423 1426 0
-719 -1423 1427 0
-1424 1427 0
-719 -1424 1428 0
-1425 1428 0
-720 1429 0
-1426 1429 0
-720 -1426 1430 0
-1427 1430 0
-720 -1427 1431 0
-1428 1431 0
-721 1432 0
-1429 1432 0
-721 -1429 1433 0
-1430 1433 0
-721 -1430 1434 0
-1431 1434 0
-722 1435 0
-1432 1435 0
-722 -1432 1436 0
-1433 1436 0
-722 -1433 1437 0
-1434 1437 0
-723 1438 0
-1435 1438 0
-723 -1435 1439 0
-1436 1439 0
-723 -1436 1440 0
-1437 1440 0
-724 1441 0
-1438 1441 0
-724 -1438 1442 0
-1439 1442 0
-724 -1439 1443 0
-1440 1443 0
-725 1444 0
-1441 1444 0
-725 -1441 1445 0
-1442 1445 0
-725 -1442 1446 0
-1443 1446 0
-726 1447 0
-1444 1447 0
-726 -1444 1448 0
-1445 1448 0
-726 -1445 1449 0
-1446 1449 0
-727 1450 0
-1447 1450 0
-727 -1447 1451 0
-1448 1451 0
-727 -1448 1452 0
-1449 1452 0
-728 1453 0
-1450 1453 0
-728 -1450 1454 0
-1451 1454 0
-728 -1451 1455 0
-1452 1455 0
-490 -738 0
-491 -741 0
-492 -744 0
-493 -747 0
-494 -750 0
-495 -753 0
-496 -756 0
-497 -759 0
-498 -762 0
-499 -765 0
-500 -768 0
-501 -771 0
-502 -774 0
-503 -777 0
-504 -780 0
-505 -783 0
-506 -786 0
-507 -789 0
-508 -792 0
-509 -795 0
-510 -798 0
-511 -801 0
-512 -804 0
-513 -807 0
-514 -810 0
-515 -813 0
-516 -816 0
-517 -819 0
-518 -822 0
-519 -825 0
-520 -828 0
-521 -831 0
-522 -834 0
-523 -837 0
-524 -840 0
-525 -843 0
-526 -846 0
-527 -849 0
-528 -852 0
-529 -855 0
-530 -858 0
-531 -861 0
-532 -864 0
-533 -867 0
-534 -870 0
-535 -873 0
-536 -876 0
-537 -879 0
-538 -882 0
-539 -885 0
-540 -888 0
-541 -891 0
-542 -894 0
-543 -897 0
-544 -900 0
-545 -903 0
-546 -906 0
-547 -909 0
-548 -912 0
-549 -915 0
-550 -918 0
-551 -921 0
-552 -924 0
-553 -927 0
-554 -930 0
-555 -933 0
-556 -936 0
-557 -939 0
-558 -942 0
-559 -945 0
-560 -948 0
-561 -951 0
-562 -954 0
-563 -957 0
-564 -960 0
-565 -963 0
-566 -966 0
-567 -969 0
-568 -972 0
-569 -975 0
-570 -978 0
-571 -981 0
-572 -984 0
-573 -987 0
-574 -990 0
-575 -993 0
-576 -996 0
-577 -999 0
-578 -1002 0
-579 -1005 0
-580 -1008 0
-581 -1011 0
-582 -1014 0
-583 -1017 0
-584 -1020 0
-585 -1023 0
-586 -1026 0
-587 -1029 0
-588 -1032 0
-589 -1035 0
-590 -1038 0
-591 -1041 0
-592 -1044 0
-593 -1047 0
-594 -1050 0
-595 -1053 0
-596 -1056 0
-597 -1059 0
-598 -1062 0
-599 -1065 0
-600 -1068 0
-601 -1071 0
-602 -1074 0
-603 -1077 0
-604 -1080 0
-605 -1083 0
-606 -1086 0
-607 -1089 0
-608 -1092 0
-609 -1095 0
-610 -1098 0
-611 -1101 0
-612 -1104 0
-613 -1107 0
-614 -1110 0
-615 -1113 0
-616 -1116 0
-617 -1119 0
-618 -1122 0
-619 -1125 0
-620 -1128 0
-621 -1131 0
-622 -1134 0
-623 -1137 0
-624 -1140 0
-625 -1143 0
-626 -1146 0
-627 -1149 0
-628 -1152 0
-629 -1155 0
-630 -1158 0
-631 -1161 0
-632 -1164 0
-633 -1167 0
-634 -1170 0
-635 -1173 0
-636 -1176 0
-637 -1179 0
-638 -1182 0
-639 -1185 0
-640 -1188 0
-641 -1191 0
-642 -1194 0
-643 -1197 0
-644 -1200 0
-645 -1203 0
-646 -1206 0
-647 -1209 0
-648 -1212 0
-649 -1215 0
-650 -1218 0
-651 -1221 0
-652 -1224 0
-653 -1227 0
-654 -1230 0
-655 -1233 0
-656 -1236 0
-657 -1239 0
-658 -1242 0
-659 -1245 0
-660 -1248 0
-661 -1251 0
-662 -1254 0
-663 -1257 0
-664 -1260 0
-665 -1263 0
-666 -1266 0
-667 -1269 0
-668 -1272 0
-669 -1275 0
-670 -1278 0
-671 -1281 0
-672 -1284 0
-673 -1287 0
-674 -1290 0
-675 -1293 0
-676 -1296 0
-677 -1299 0
-678 -1302 0
-679 -1305 0
-680 -1308 0
-681 -1311 0
-682 -1314 0
-683 -1317 0
-684 -1320 0
-685 -1323 0
-686 -1326 0
-687 -1329 0
-688 -1332 0
-689 -1335 0
-690 -1338 0
-691 -1341 0
-692 -1344 0
-693 -1347 0
-694 -1350 0
-695 -1353 0
-696 -1356 0
-697 -1359 0
-698 -1362 0
-699 -1365 0
-700 -1368 0
-701 -1371 0
-702 -1374 0
-703 -1377 0
-704 -1380 0
-705 -1383 0
-706 -1386 0
-707 -1389 0
-708 -1392 0
-709 -1395 0
-710 -1398 0
-711 -1401 0
-712 -1404 0
-713 -1407 0
-714 -1410 0
-715 -1413 0
-716 -1416 0
-717 -1419 0
-718 -1422 0
-719 -1425 0
-720 -1428 0
-721 -1431 0
-722 -1434 0
-723 -1437 0
-724 -1440 0
-725 -1443 0
-726 -1446 0
-727 -1449 0
-728 -1452 0
-729 -1455 0
