c minimum-matching-four-flow-v1
c exact cubic 5-CDC criterion plus sequential at-most bound
c matching_bound 4
p cnf 2181 6703
-1 244 0
-1 487 0
1 -244 -487 0
-1 -730 0
-1 -973 0
1 730 973 0
-2 245 0
-2 488 0
2 -245 -488 0
-2 -731 0
-2 -974 0
2 731 974 0
-3 246 0
-3 489 0
3 -246 -489 0
-3 -732 0
-3 -975 0
3 732 975 0
-4 247 0
-4 490 0
4 -247 -490 0
-4 -733 0
-4 -976 0
4 733 976 0
-5 248 0
-5 491 0
5 -248 -491 0
-5 -734 0
-5 -977 0
5 734 977 0
-6 249 0
-6 492 0
6 -249 -492 0
-6 -735 0
-6 -978 0
6 735 978 0
-7 250 0
-7 493 0
7 -250 -493 0
-7 -736 0
-7 -979 0
7 736 979 0
-8 251 0
-8 494 0
8 -251 -494 0
-8 -737 0
-8 -980 0
8 737 980 0
-9 252 0
-9 495 0
9 -252 -495 0
-9 -738 0
-9 -981 0
9 738 981 0
-10 253 0
-10 496 0
10 -253 -496 0
-10 -739 0
-10 -982 0
10 739 982 0
-11 254 0
-11 497 0
11 -254 -497 0
-11 -740 0
-11 -983 0
11 740 983 0
-12 255 0
-12 498 0
12 -255 -498 0
-12 -741 0
-12 -984 0
12 741 984 0
-13 256 0
-13 499 0
13 -256 -499 0
-13 -742 0
-13 -985 0
13 742 985 0
-14 257 0
-14 500 0
14 -257 -500 0
-14 -743 0
-14 -986 0
14 743 986 0
-15 258 0
-15 501 0
15 -258 -501 0
-15 -744 0
-15 -987 0
15 744 987 0
-16 259 0
-16 502 0
16 -259 -502 0
-16 -745 0
-16 -988 0
16 745 988 0
-17 260 0
-17 503 0
17 -260 -503 0
-17 -746 0
-17 -989 0
17 746 989 0
-18 261 0
-18 504 0
18 -261 -504 0
-18 -747 0
-18 -990 0
18 747 990 0
-19 262 0
-19 505 0
19 -262 -505 0
-19 -748 0
-19 -991 0
19 748 991 0
-20 263 0
-20 506 0
20 -263 -506 0
-20 -749 0
-20 -992 0
20 749 992 0
-21 264 0
-21 507 0
21 -264 -507 0
-21 -750 0
-21 -993 0
21 750 993 0
-22 265 0
-22 508 0
22 -265 -508 0
-22 -751 0
-22 -994 0
22 751 994 0
-23 266 0
-23 509 0
23 -266 -509 0
-23 -752 0
-23 -995 0
23 752 995 0
-24 267 0
-24 510 0
24 -267 -510 0
-24 -753 0
-24 -996 0
24 753 996 0
-25 268 0
-25 511 0
25 -268 -511 0
-25 -754 0
-25 -997 0
25 754 997 0
-26 269 0
-26 512 0
26 -269 -512 0
-26 -755 0
-26 -998 0
26 755 998 0
-27 270 0
-27 513 0
27 -270 -513 0
-27 -756 0
-27 -999 0
27 756 999 0
-28 271 0
-28 514 0
28 -271 -514 0
-28 -757 0
-28 -1000 0
28 757 1000 0
-29 272 0
-29 515 0
29 -272 -515 0
-29 -758 0
-29 -1001 0
29 758 1001 0
-30 273 0
-30 516 0
30 -273 -516 0
-30 -759 0
-30 -1002 0
30 759 1002 0
-31 274 0
-31 517 0
31 -274 -517 0
-31 -760 0
-31 -1003 0
31 760 1003 0
-32 275 0
-32 518 0
32 -275 -518 0
-32 -761 0
-32 -1004 0
32 761 1004 0
-33 276 0
-33 519 0
33 -276 -519 0
-33 -762 0
-33 -1005 0
33 762 1005 0
-34 277 0
-34 520 0
34 -277 -520 0
-34 -763 0
-34 -1006 0
34 763 1006 0
-35 278 0
-35 521 0
35 -278 -521 0
-35 -764 0
-35 -1007 0
35 764 1007 0
-36 279 0
-36 522 0
36 -279 -522 0
-36 -765 0
-36 -1008 0
36 765 1008 0
-37 280 0
-37 523 0
37 -280 -523 0
-37 -766 0
-37 -1009 0
37 766 1009 0
-38 281 0
-38 524 0
38 -281 -524 0
-38 -767 0
-38 -1010 0
38 767 1010 0
-39 282 0
-39 525 0
39 -282 -525 0
-39 -768 0
-39 -1011 0
39 768 1011 0
-40 283 0
-40 526 0
40 -283 -526 0
-40 -769 0
-40 -1012 0
40 769 1012 0
-41 284 0
-41 527 0
41 -284 -527 0
-41 -770 0
-41 -1013 0
41 770 1013 0
-42 285 0
-42 528 0
42 -285 -528 0
-42 -771 0
-42 -1014 0
42 771 1014 0
-43 286 0
-43 529 0
43 -286 -529 0
-43 -772 0
-43 -1015 0
43 772 1015 0
-44 287 0
-44 530 0
44 -287 -530 0
-44 -773 0
-44 -1016 0
44 773 1016 0
-45 288 0
-45 531 0
45 -288 -531 0
-45 -774 0
-45 -1017 0
45 774 1017 0
-46 289 0
-46 532 0
46 -289 -532 0
-46 -775 0
-46 -1018 0
46 775 1018 0
-47 290 0
-47 533 0
47 -290 -533 0
-47 -776 0
-47 -1019 0
47 776 1019 0
-48 291 0
-48 534 0
48 -291 -534 0
-48 -777 0
-48 -1020 0
48 777 1020 0
-49 292 0
-49 535 0
49 -292 -535 0
-49 -778 0
-49 -1021 0
49 778 1021 0
-50 293 0
-50 536 0
50 -293 -536 0
-50 -779 0
-50 -1022 0
50 779 1022 0
-51 294 0
-51 537 0
51 -294 -537 0
-51 -780 0
-51 -1023 0
51 780 1023 0
-52 295 0
-52 538 0
52 -295 -538 0
-52 -781 0
-52 -1024 0
52 781 1024 0
-53 296 0
-53 539 0
53 -296 -539 0
-53 -782 0
-53 -1025 0
53 782 1025 0
-54 297 0
-54 540 0
54 -297 -540 0
-54 -783 0
-54 -1026 0
54 783 1026 0
-55 298 0
-55 541 0
55 -298 -541 0
-55 -784 0
-55 -1027 0
55 784 1027 0
-56 299 0
-56 542 0
56 -299 -542 0
-56 -785 0
-56 -1028 0
56 785 1028 0
-57 300 0
-57 543 0
57 -300 -543 0
-57 -786 0
-57 -1029 0
57 786 1029 0
-58 301 0
-58 544 0
58 -301 -544 0
-58 -787 0
-58 -1030 0
58 787 1030 0
-59 302 0
-59 545 0
59 -302 -545 0
-59 -788 0
-59 -1031 0
59 788 1031 0
-60 303 0
-60 546 0
60 -303 -546 0
-60 -789 0
-60 -1032 0
60 789 1032 0
-61 304 0
-61 547 0
61 -304 -547 0
-61 -790 0
-61 -1033 0
61 790 1033 0
-62 305 0
-62 548 0
62 -305 -548 0
-62 -791 0
-62 -1034 0
62 791 1034 0
-63 306 0
-63 549 0
63 -306 -549 0
-63 -792 0
-63 -1035 0
63 792 1035 0
-64 307 0
-64 550 0
64 -307 -550 0
-64 -793 0
-64 -1036 0
64 793 1036 0
-65 308 0
-65 551 0
65 -308 -551 0
-65 -794 0
-65 -1037 0
65 794 1037 0
-66 309 0
-66 552 0
66 -309 -552 0
-66 -795 0
-66 -1038 0
66 795 1038 0
-67 310 0
-67 553 0
67 -310 -553 0
-67 -796 0
-67 -1039 0
67 796 1039 0
-68 311 0
-68 554 0
68 -311 -554 0
-68 -797 0
-68 -1040 0
68 797 1040 0
-69 312 0
-69 555 0
69 -312 -555 0
-69 -798 0
-69 -1041 0
69 798 1041 0
-70 313 0
-70 556 0
70 -313 -556 0
-70 -799 0
-70 -1042 0
70 799 1042 0
-71 314 0
-71 557 0
71 -314 -557 0
-71 -800 0
-71 -1043 0
71 800 1043 0
-72 315 0
-72 558 0
72 -315 -558 0
-72 -801 0
-72 -1044 0
72 801 1044 0
-73 316 0
-73 559 0
73 -316 -559 0
-73 -802 0
-73 -1045 0
73 802 1045 0
-74 317 0
-74 560 0
74 -317 -560 0
-74 -803 0
-74 -1046 0
74 803 1046 0
-75 318 0
-75 561 0
75 -318 -561 0
-75 -804 0
-75 -1047 0
75 804 1047 0
-76 319 0
-76 562 0
76 -319 -562 0
-76 -805 0
-76 -1048 0
76 805 1048 0
-77 320 0
-77 563 0
77 -320 -563 0
-77 -806 0
-77 -1049 0
77 806 1049 0
-78 321 0
-78 564 0
78 -321 -564 0
-78 -807 0
-78 -1050 0
78 807 1050 0
-79 322 0
-79 565 0
79 -322 -565 0
-79 -808 0
-79 -1051 0
79 808 1051 0
-80 323 0
-80 566 0
80 -323 -566 0
-80 -809 0
-80 -1052 0
80 809 1052 0
-81 324 0
-81 567 0
81 -324 -567 0
-81 -810 0
-81 -1053 0
81 810 1053 0
-82 325 0
-82 568 0
82 -325 -568 0
-82 -811 0
-82 -1054 0
82 811 1054 0
-83 326 0
-83 569 0
83 -326 -569 0
-83 -812 0
-83 -1055 0
83 812 1055 0
-84 327 0
-84 570 0
84 -327 -570 0
-84 -813 0
-84 -1056 0
84 813 1056 0
-85 328 0
-85 571 0
85 -328 -571 0
-85 -814 0
-85 -1057 0
85 814 1057 0
-86 329 0
-86 572 0
86 -329 -572 0
-86 -815 0
-86 -1058 0
86 815 1058 0
-87 330 0
-87 573 0
87 -330 -573 0
-87 -816 0
-87 -1059 0
87 816 1059 0
-88 331 0
-88 574 0
88 -331 -574 0
-88 -817 0
-88 -1060 0
88 817 1060 0
-89 332 0
-89 575 0
89 -332 -575 0
-89 -818 0
-89 -1061 0
89 818 1061 0
-90 333 0
-90 576 0
90 -333 -576 0
-90 -819 0
-90 -1062 0
90 819 1062 0
-91 334 0
-91 577 0
91 -334 -577 0
-91 -820 0
-91 -1063 0
91 820 1063 0
-92 335 0
-92 578 0
92 -335 -578 0
-92 -821 0
-92 -1064 0
92 821 1064 0
-93 336 0
-93 579 0
93 -336 -579 0
-93 -822 0
-93 -1065 0
93 822 1065 0
-94 337 0
-94 580 0
94 -337 -580 0
-94 -823 0
-94 -1066 0
94 823 1066 0
-95 338 0
-95 581 0
95 -338 -581 0
-95 -824 0
-95 -1067 0
95 824 1067 0
-96 339 0
-96 582 0
96 -339 -582 0
-96 -825 0
-96 -1068 0
96 825 1068 0
-97 340 0
-97 583 0
97 -340 -583 0
-97 -826 0
-97 -1069 0
97 826 1069 0
-98 341 0
-98 584 0
98 -341 -584 0
-98 -827 0
-98 -1070 0
98 827 1070 0
-99 342 0
-99 585 0
99 -342 -585 0
-99 -828 0
-99 -1071 0
99 828 1071 0
-100 343 0
-100 586 0
100 -343 -586 0
-100 -829 0
-100 -1072 0
100 829 1072 0
-101 344 0
-101 587 0
101 -344 -587 0
-101 -830 0
-101 -1073 0
101 830 1073 0
-102 345 0
-102 588 0
102 -345 -588 0
-102 -831 0
-102 -1074 0
102 831 1074 0
-103 346 0
-103 589 0
103 -346 -589 0
-103 -832 0
-103 -1075 0
103 832 1075 0
-104 347 0
-104 590 0
104 -347 -590 0
-104 -833 0
-104 -1076 0
104 833 1076 0
-105 348 0
-105 591 0
105 -348 -591 0
-105 -834 0
-105 -1077 0
105 834 1077 0
-106 349 0
-106 592 0
106 -349 -592 0
-106 -835 0
-106 -1078 0
106 835 1078 0
-107 350 0
-107 593 0
107 -350 -593 0
-107 -836 0
-107 -1079 0
107 836 1079 0
-108 351 0
-108 594 0
108 -351 -594 0
-108 -837 0
-108 -1080 0
108 837 1080 0
-109 352 0
-109 595 0
109 -352 -595 0
-109 -838 0
-109 -1081 0
109 838 1081 0
-110 353 0
-110 596 0
110 -353 -596 0
-110 -839 0
-110 -1082 0
110 839 1082 0
-111 354 0
-111 597 0
111 -354 -597 0
-111 -840 0
-111 -1083 0
111 840 1083 0
-112 355 0
-112 598 0
112 -355 -598 0
-112 -841 0
-112 -1084 0
112 841 1084 0
-113 356 0
-113 599 0
113 -356 -599 0
-113 -842 0
-113 -1085 0
113 842 1085 0
-114 357 0
-114 600 0
114 -357 -600 0
-114 -843 0
-114 -1086 0
114 843 1086 0
-115 358 0
-115 601 0
115 -358 -601 0
-115 -844 0
-115 -1087 0
115 844 1087 0
-116 359 0
-116 602 0
116 -359 -602 0
-116 -845 0
-116 -1088 0
116 845 1088 0
-117 360 0
-117 603 0
117 -360 -603 0
-117 -846 0
-117 -1089 0
117 846 1089 0
-118 361 0
-118 604 0
118 -361 -604 0
-118 -847 0
-118 -1090 0
118 847 1090 0
-119 362 0
-119 605 0
119 -362 -605 0
-119 -848 0
-119 -1091 0
119 848 1091 0
-120 363 0
-120 606 0
120 -363 -606 0
-120 -849 0
-120 -1092 0
120 849 1092 0
-121 364 0
-121 607 0
121 -364 -607 0
-121 -850 0
-121 -1093 0
121 850 1093 0
-122 365 0
-122 608 0
122 -365 -608 0
-122 -851 0
-122 -1094 0
122 851 1094 0
-123 366 0
-123 609 0
123 -366 -609 0
-123 -852 0
-123 -1095 0
123 852 1095 0
-124 367 0
-124 610 0
124 -367 -610 0
-124 -853 0
-124 -1096 0
124 853 1096 0
-125 368 0
-125 611 0
125 -368 -611 0
-125 -854 0
-125 -1097 0
125 854 1097 0
-126 369 0
-126 612 0
126 -369 -612 0
-126 -855 0
-126 -1098 0
126 855 1098 0
-127 370 0
-127 613 0
127 -370 -613 0
-127 -856 0
-127 -1099 0
127 856 1099 0
-128 371 0
-128 614 0
128 -371 -614 0
-128 -857 0
-128 -1100 0
128 857 1100 0
-129 372 0
-129 615 0
129 -372 -615 0
-129 -858 0
-129 -1101 0
129 858 1101 0
-130 373 0
-130 616 0
130 -373 -616 0
-130 -859 0
-130 -1102 0
130 859 1102 0
-131 374 0
-131 617 0
131 -374 -617 0
-131 -860 0
-131 -1103 0
131 860 1103 0
-132 375 0
-132 618 0
132 -375 -618 0
-132 -861 0
-132 -1104 0
132 861 1104 0
-133 376 0
-133 619 0
133 -376 -619 0
-133 -862 0
-133 -1105 0
133 862 1105 0
-134 377 0
-134 620 0
134 -377 -620 0
-134 -863 0
-134 -1106 0
134 863 1106 0
-135 378 0
-135 621 0
135 -378 -621 0
-135 -864 0
-135 -1107 0
135 864 1107 0
-136 379 0
-136 622 0
136 -379 -622 0
-136 -865 0
-136 -1108 0
136 865 1108 0
-137 380 0
-137 623 0
137 -380 -623 0
-137 -866 0
-137 -1109 0
137 866 1109 0
-138 381 0
-138 624 0
138 -381 -624 0
-138 -867 0
-138 -1110 0
138 867 1110 0
-139 382 0
-139 625 0
139 -382 -625 0
-139 -868 0
-139 -1111 0
139 868 1111 0
-140 383 0
-140 626 0
140 -383 -626 0
-140 -869 0
-140 -1112 0
140 869 1112 0
-141 384 0
-141 627 0
141 -384 -627 0
-141 -870 0
-141 -1113 0
141 870 1113 0
-142 385 0
-142 628 0
142 -385 -628 0
-142 -871 0
-142 -1114 0
142 871 1114 0
-143 386 0
-143 629 0
143 -386 -629 0
-143 -872 0
-143 -1115 0
143 872 1115 0
-144 387 0
-144 630 0
144 -387 -630 0
-144 -873 0
-144 -1116 0
144 873 1116 0
-145 388 0
-145 631 0
145 -388 -631 0
-145 -874 0
-145 -1117 0
145 874 1117 0
-146 389 0
-146 632 0
146 -389 -632 0
-146 -875 0
-146 -1118 0
146 875 1118 0
-147 390 0
-147 633 0
147 -390 -633 0
-147 -876 0
-147 -1119 0
147 876 1119 0
-148 391 0
-148 634 0
148 -391 -634 0
-148 -877 0
-148 -1120 0
148 877 1120 0
-149 392 0
-149 635 0
149 -392 -635 0
-149 -878 0
-149 -1121 0
149 878 1121 0
-150 393 0
-150 636 0
150 -393 -636 0
-150 -879 0
-150 -1122 0
150 879 1122 0
-151 394 0
-151 637 0
151 -394 -637 0
-151 -880 0
-151 -1123 0
151 880 1123 0
-152 395 0
-152 638 0
152 -395 -638 0
-152 -881 0
-152 -1124 0
152 881 1124 0
-153 396 0
-153 639 0
153 -396 -639 0
-153 -882 0
-153 -1125 0
153 882 1125 0
-154 397 0
-154 640 0
154 -397 -640 0
-154 -883 0
-154 -1126 0
154 883 1126 0
-155 398 0
-155 641 0
155 -398 -641 0
-155 -884 0
-155 -1127 0
155 884 1127 0
-156 399 0
-156 642 0
156 -399 -642 0
-156 -885 0
-156 -1128 0
156 885 1128 0
-157 400 0
-157 643 0
157 -400 -643 0
-157 -886 0
-157 -1129 0
157 886 1129 0
-158 401 0
-158 644 0
158 -401 -644 0
-158 -887 0
-158 -1130 0
158 887 1130 0
-159 402 0
-159 645 0
159 -402 -645 0
-159 -888 0
-159 -1131 0
159 888 1131 0
-160 403 0
-160 646 0
160 -403 -646 0
-160 -889 0
-160 -1132 0
160 889 1132 0
-161 404 0
-161 647 0
161 -404 -647 0
-161 -890 0
-161 -1133 0
161 890 1133 0
-162 405 0
-162 648 0
162 -405 -648 0
-162 -891 0
-162 -1134 0
162 891 1134 0
-163 406 0
-163 649 0
163 -406 -649 0
-163 -892 0
-163 -1135 0
163 892 1135 0
-164 407 0
-164 650 0
164 -407 -650 0
-164 -893 0
-164 -1136 0
164 893 1136 0
-165 408 0
-165 651 0
165 -408 -651 0
-165 -894 0
-165 -1137 0
165 894 1137 0
-166 409 0
-166 652 0
166 -409 -652 0
-166 -895 0
-166 -1138 0
166 895 1138 0
-167 410 0
-167 653 0
167 -410 -653 0
-167 -896 0
-167 -1139 0
167 896 1139 0
-168 411 0
-168 654 0
168 -411 -654 0
-168 -897 0
-168 -1140 0
168 897 1140 0
-169 412 0
-169 655 0
169 -412 -655 0
-169 -898 0
-169 -1141 0
169 898 1141 0
-170 413 0
-170 656 0
170 -413 -656 0
-170 -899 0
-170 -1142 0
170 899 1142 0
-171 414 0
-171 657 0
171 -414 -657 0
-171 -900 0
-171 -1143 0
171 900 1143 0
-172 415 0
-172 658 0
172 -415 -658 0
-172 -901 0
-172 -1144 0
172 901 1144 0
-173 416 0
-173 659 0
173 -416 -659 0
-173 -902 0
-173 -1145 0
173 902 1145 0
-174 417 0
-174 660 0
174 -417 -660 0
-174 -903 0
-174 -1146 0
174 903 1146 0
-175 418 0
-175 661 0
175 -418 -661 0
-175 -904 0
-175 -1147 0
175 904 1147 0
-176 419 0
-176 662 0
176 -419 -662 0
-176 -905 0
-176 -1148 0
176 905 1148 0
-177 420 0
-177 663 0
177 -420 -663 0
-177 -906 0
-177 -1149 0
177 906 1149 0
-178 421 0
-178 664 0
178 -421 -664 0
-178 -907 0
-178 -1150 0
178 907 1150 0
-179 422 0
-179 665 0
179 -422 -665 0
-179 -908 0
-179 -1151 0
179 908 1151 0
-180 423 0
-180 666 0
180 -423 -666 0
-180 -909 0
-180 -1152 0
180 909 1152 0
-181 424 0
-181 667 0
181 -424 -667 0
-181 -910 0
-181 -1153 0
181 910 1153 0
-182 425 0
-182 668 0
182 -425 -668 0
-182 -911 0
-182 -1154 0
182 911 1154 0
-183 426 0
-183 669 0
183 -426 -669 0
-183 -912 0
-183 -1155 0
183 912 1155 0
-184 427 0
-184 670 0
184 -427 -670 0
-184 -913 0
-184 -1156 0
184 913 1156 0
-185 428 0
-185 671 0
185 -428 -671 0
-185 -914 0
-185 -1157 0
185 914 1157 0
-186 429 0
-186 672 0
186 -429 -672 0
-186 -915 0
-186 -1158 0
186 915 1158 0
-187 430 0
-187 673 0
187 -430 -673 0
-187 -916 0
-187 -1159 0
187 916 1159 0
-188 431 0
-188 674 0
188 -431 -674 0
-188 -917 0
-188 -1160 0
188 917 1160 0
-189 432 0
-189 675 0
189 -432 -675 0
-189 -918 0
-189 -1161 0
189 918 1161 0
-190 433 0
-190 676 0
190 -433 -676 0
-190 -919 0
-190 -1162 0
190 919 1162 0
-191 434 0
-191 677 0
191 -434 -677 0
-191 -920 0
-191 -1163 0
191 920 1163 0
-192 435 0
-192 678 0
192 -435 -678 0
-192 -921 0
-192 -1164 0
192 921 1164 0
-193 436 0
-193 679 0
193 -436 -679 0
-193 -922 0
-193 -1165 0
193 922 1165 0
-194 437 0
-194 680 0
194 -437 -680 0
-194 -923 0
-194 -1166 0
194 923 1166 0
-195 438 0
-195 681 0
195 -438 -681 0
-195 -924 0
-195 -1167 0
195 924 1167 0
-196 439 0
-196 682 0
196 -439 -682 0
-196 -925 0
-196 -1168 0
196 925 1168 0
-197 440 0
-197 683 0
197 -440 -683 0
-197 -926 0
-197 -1169 0
197 926 1169 0
-198 441 0
-198 684 0
198 -441 -684 0
-198 -927 0
-198 -1170 0
198 927 1170 0
-199 442 0
-199 685 0
199 -442 -685 0
-199 -928 0
-199 -1171 0
199 928 1171 0
-200 443 0
-200 686 0
200 -443 -686 0
-200 -929 0
-200 -1172 0
200 929 1172 0
-201 444 0
-201 687 0
201 -444 -687 0
-201 -930 0
-201 -1173 0
201 930 1173 0
-202 445 0
-202 688 0
202 -445 -688 0
-202 -931 0
-202 -1174 0
202 931 1174 0
-203 446 0
-203 689 0
203 -446 -689 0
-203 -932 0
-203 -1175 0
203 932 1175 0
-204 447 0
-204 690 0
204 -447 -690 0
-204 -933 0
-204 -1176 0
204 933 1176 0
-205 448 0
-205 691 0
205 -448 -691 0
-205 -934 0
-205 -1177 0
205 934 1177 0
-206 449 0
-206 692 0
206 -449 -692 0
-206 -935 0
-206 -1178 0
206 935 1178 0
-207 450 0
-207 693 0
207 -450 -693 0
-207 -936 0
-207 -1179 0
207 936 1179 0
-208 451 0
-208 694 0
208 -451 -694 0
-208 -937 0
-208 -1180 0
208 937 1180 0
-209 452 0
-209 695 0
209 -452 -695 0
-209 -938 0
-209 -1181 0
209 938 1181 0
-210 453 0
-210 696 0
210 -453 -696 0
-210 -939 0
-210 -1182 0
210 939 1182 0
-211 454 0
-211 697 0
211 -454 -697 0
-211 -940 0
-211 -1183 0
211 940 1183 0
-212 455 0
-212 698 0
212 -455 -698 0
-212 -941 0
-212 -1184 0
212 941 1184 0
-213 456 0
-213 699 0
213 -456 -699 0
-213 -942 0
-213 -1185 0
213 942 1185 0
-214 457 0
-214 700 0
214 -457 -700 0
-214 -943 0
-214 -1186 0
214 943 1186 0
-215 458 0
-215 701 0
215 -458 -701 0
-215 -944 0
-215 -1187 0
215 944 1187 0
-216 459 0
-216 702 0
216 -459 -702 0
-216 -945 0
-216 -1188 0
216 945 1188 0
-217 460 0
-217 703 0
217 -460 -703 0
-217 -946 0
-217 -1189 0
217 946 1189 0
-218 461 0
-218 704 0
218 -461 -704 0
-218 -947 0
-218 -1190 0
218 947 1190 0
-219 462 0
-219 705 0
219 -462 -705 0
-219 -948 0
-219 -1191 0
219 948 1191 0
-220 463 0
-220 706 0
220 -463 -706 0
-220 -949 0
-220 -1192 0
220 949 1192 0
-221 464 0
-221 707 0
221 -464 -707 0
-221 -950 0
-221 -1193 0
221 950 1193 0
-222 465 0
-222 708 0
222 -465 -708 0
-222 -951 0
-222 -1194 0
222 951 1194 0
-223 466 0
-223 709 0
223 -466 -709 0
-223 -952 0
-223 -1195 0
223 952 1195 0
-224 467 0
-224 710 0
224 -467 -710 0
-224 -953 0
-224 -1196 0
224 953 1196 0
-225 468 0
-225 711 0
225 -468 -711 0
-225 -954 0
-225 -1197 0
225 954 1197 0
-226 469 0
-226 712 0
226 -469 -712 0
-226 -955 0
-226 -1198 0
226 955 1198 0
-227 470 0
-227 713 0
227 -470 -713 0
-227 -956 0
-227 -1199 0
227 956 1199 0
-228 471 0
-228 714 0
228 -471 -714 0
-228 -957 0
-228 -1200 0
228 957 1200 0
-229 472 0
-229 715 0
229 -472 -715 0
-229 -958 0
-229 -1201 0
229 958 1201 0
-230 473 0
-230 716 0
230 -473 -716 0
-230 -959 0
-230 -1202 0
230 959 1202 0
-231 474 0
-231 717 0
231 -474 -717 0
-231 -960 0
-231 -1203 0
231 960 1203 0
-232 475 0
-232 718 0
232 -475 -718 0
-232 -961 0
-232 -1204 0
232 961 1204 0
-233 476 0
-233 719 0
233 -476 -719 0
-233 -962 0
-233 -1205 0
233 962 1205 0
-234 477 0
-234 720 0
234 -477 -720 0
-234 -963 0
-234 -1206 0
234 963 1206 0
-235 478 0
-235 721 0
235 -478 -721 0
-235 -964 0
-235 -1207 0
235 964 1207 0
-236 479 0
-236 722 0
236 -479 -722 0
-236 -965 0
-236 -1208 0
236 965 1208 0
-237 480 0
-237 723 0
237 -480 -723 0
-237 -966 0
-237 -1209 0
237 966 1209 0
-238 481 0
-238 724 0
238 -481 -724 0
-238 -967 0
-238 -1210 0
238 967 1210 0
-239 482 0
-239 725 0
239 -482 -725 0
-239 -968 0
-239 -1211 0
239 968 1211 0
-240 483 0
-240 726 0
240 -483 -726 0
-240 -969 0
-240 -1212 0
240 969 1212 0
-241 484 0
-241 727 0
241 -484 -727 0
-241 -970 0
-241 -1213 0
241 970 1213 0
-242 485 0
-242 728 0
242 -485 -728 0
-242 -971 0
-242 -1214 0
242 971 1214 0
-243 486 0
-243 729 0
243 -486 -729 0
-243 -972 0
-243 -1215 0
243 972 1215 0
-1 -2 0
-1 -3 0
-2 -3 0
-1 -4 0
-1 -5 0
-4 -5 0
-6 -7 0
-6 -8 0
-7 -8 0
-9 -10 0
-9 -11 0
-10 -11 0
-2 -6 0
-2 -12 0
-6 -12 0
-4 -7 0
-4 -9 0
-7 -9 0
-10 -12 0
-10 -13 0
-12 -13 0
-14 -15 0
-14 -16 0
-15 -16 0
-3 -14 0
-3 -17 0
-14 -17 0
-11 -18 0
-11 -19 0
-18 -19 0
-18 -20 0
-18 -21 0
-20 -21 0
-15 -22 0
-15 -23 0
-22 -23 0
-17 -24 0
-17 -25 0
-24 -25 0
-19 -22 0
-19 -26 0
-22 -26 0
-20 -23 0
-20 -24 0
-23 -24 0
-25 -26 0
-25 -27 0
-26 -27 0
-8 -21 0
-8 -28 0
-21 -28 0
-27 -29 0
-27 -30 0
-29 -30 0
-29 -31 0
-29 -32 0
-31 -32 0
-33 -34 0
-33 -35 0
-34 -35 0
-16 -36 0
-16 -37 0
-36 -37 0
-30 -33 0
-30 -38 0
-33 -38 0
-31 -34 0
-31 -36 0
-34 -36 0
-37 -38 0
-37 -39 0
-38 -39 0
-40 -41 0
-40 -42 0
-41 -42 0
-40 -43 0
-40 -44 0
-43 -44 0
-45 -46 0
-45 -47 0
-46 -47 0
-48 -49 0
-48 -50 0
-49 -50 0
-41 -45 0
-41 -51 0
-45 -51 0
-43 -46 0
-43 -48 0
-46 -48 0
-49 -51 0
-49 -52 0
-51 -52 0
-39 -53 0
-39 -54 0
-53 -54 0
-42 -53 0
-42 -55 0
-53 -55 0
-50 -56 0
-50 -57 0
-56 -57 0
-56 -58 0
-56 -59 0
-58 -59 0
-54 -60 0
-54 -61 0
-60 -61 0
-55 -62 0
-55 -63 0
-62 -63 0
-57 -60 0
-57 -64 0
-60 -64 0
-58 -61 0
-58 -62 0
-61 -62 0
-32 -63 0
-32 -64 0
-63 -64 0
-28 -47 0
-28 -59 0
-47 -59 0
-65 -66 0
-65 -67 0
-66 -67 0
-65 -68 0
-65 -69 0
-68 -69 0
-70 -71 0
-70 -72 0
-71 -72 0
-73 -74 0
-73 -75 0
-74 -75 0
-66 -70 0
-66 -76 0
-70 -76 0
-68 -71 0
-68 -73 0
-71 -73 0
-74 -76 0
-74 -77 0
-76 -77 0
-78 -79 0
-78 -80 0
-79 -80 0
-67 -78 0
-67 -81 0
-78 -81 0
-75 -82 0
-75 -83 0
-82 -83 0
-82 -84 0
-82 -85 0
-84 -85 0
-79 -86 0
-79 -87 0
-86 -87 0
-81 -88 0
-81 -89 0
-88 -89 0
-83 -86 0
-83 -90 0
-86 -90 0
-84 -87 0
-84 -88 0
-87 -88 0
-89 -90 0
-89 -91 0
-90 -91 0
-72 -85 0
-72 -92 0
-85 -92 0
-93 -94 0
-93 -95 0
-94 -95 0
-93 -96 0
-93 -97 0
-96 -97 0
-98 -99 0
-98 -100 0
-99 -100 0
-101 -102 0
-101 -103 0
-102 -103 0
-94 -98 0
-94 -104 0
-98 -104 0
-96 -99 0
-96 -101 0
-99 -101 0
-102 -104 0
-102 -105 0
-104 -105 0
-106 -107 0
-106 -108 0
-107 -108 0
-95 -106 0
-95 -109 0
-106 -109 0
-103 -110 0
-103 -111 0
-110 -111 0
-110 -112 0
-110 -113 0
-112 -113 0
-107 -114 0
-107 -115 0
-114 -115 0
-109 -116 0
-109 -117 0
-116 -117 0
-111 -114 0
-111 -118 0
-114 -118 0
-112 -115 0
-112 -116 0
-115 -116 0
-117 -118 0
-117 -119 0
-118 -119 0
-100 -113 0
-100 -120 0
-113 -120 0
-44 -80 0
-44 -121 0
-80 -121 0
-52 -108 0
-52 -121 0
-108 -121 0
-5 -91 0
-5 -122 0
-91 -122 0
-13 -122 0
-13 -123 0
-122 -123 0
-119 -123 0
-119 -124 0
-123 -124 0
-35 -92 0
-35 -120 0
-92 -120 0
-125 -126 0
-125 -127 0
-126 -127 0
-125 -128 0
-125 -129 0
-128 -129 0
-130 -131 0
-130 -132 0
-131 -132 0
-133 -134 0
-133 -135 0
-134 -135 0
-126 -130 0
-126 -136 0
-130 -136 0
-128 -131 0
-128 -133 0
-131 -133 0
-134 -136 0
-134 -137 0
-136 -137 0
-138 -139 0
-138 -140 0
-139 -140 0
-127 -138 0
-127 -141 0
-138 -141 0
-135 -142 0
-135 -143 0
-142 -143 0
-142 -144 0
-142 -145 0
-144 -145 0
-139 -146 0
-139 -147 0
-146 -147 0
-141 -148 0
-141 -149 0
-148 -149 0
-143 -146 0
-143 -150 0
-146 -150 0
-144 -147 0
-144 -148 0
-147 -148 0
-149 -150 0
-149 -151 0
-150 -151 0
-132 -145 0
-132 -152 0
-145 -152 0
-153 -154 0
-153 -155 0
-154 -155 0
-153 -156 0
-153 -157 0
-156 -157 0
-158 -159 0
-158 -160 0
-159 -160 0
-161 -162 0
-161 -163 0
-162 -163 0
-154 -158 0
-154 -164 0
-158 -164 0
-156 -159 0
-156 -161 0
-159 -161 0
-162 -164 0
-162 -165 0
-164 -165 0
-166 -167 0
-166 -168 0
-167 -168 0
-155 -166 0
-155 -169 0
-166 -169 0
-163 -170 0
-163 -171 0
-170 -171 0
-170 -172 0
-170 -173 0
-172 -173 0
-167 -174 0
-167 -175 0
-174 -175 0
-169 -176 0
-169 -177 0
-176 -177 0
-171 -174 0
-171 -178 0
-174 -178 0
-172 -175 0
-172 -176 0
-175 -176 0
-177 -178 0
-177 -179 0
-178 -179 0
-160 -173 0
-160 -180 0
-173 -180 0
-97 -140 0
-97 -181 0
-140 -181 0
-105 -168 0
-105 -181 0
-168 -181 0
-69 -151 0
-69 -182 0
-151 -182 0
-77 -182 0
-77 -183 0
-182 -183 0
-179 -183 0
-179 -184 0
-183 -184 0
-124 -152 0
-124 -180 0
-152 -180 0
-185 -186 0
-185 -187 0
-186 -187 0
-185 -188 0
-185 -189 0
-188 -189 0
-190 -191 0
-190 -192 0
-191 -192 0
-193 -194 0
-193 -195 0
-194 -195 0
-186 -190 0
-186 -196 0
-190 -196 0
-188 -191 0
-188 -193 0
-191 -193 0
-194 -196 0
-194 -197 0
-196 -197 0
-198 -199 0
-198 -200 0
-199 -200 0
-187 -198 0
-187 -201 0
-198 -201 0
-195 -202 0
-195 -203 0
-202 -203 0
-202 -204 0
-202 -205 0
-204 -205 0
-199 -206 0
-199 -207 0
-206 -207 0
-201 -208 0
-201 -209 0
-208 -209 0
-203 -206 0
-203 -210 0
-206 -210 0
-204 -207 0
-204 -208 0
-207 -208 0
-209 -210 0
-209 -211 0
-210 -211 0
-192 -205 0
-192 -212 0
-205 -212 0
-213 -214 0
-213 -215 0
-214 -215 0
-189 -213 0
-189 -216 0
-213 -216 0
-217 -218 0
-217 -219 0
-218 -219 0
-220 -221 0
-220 -222 0
-221 -222 0
-214 -217 0
-214 -223 0
-217 -223 0
-216 -218 0
-216 -220 0
-218 -220 0
-221 -223 0
-221 -224 0
-223 -224 0
-225 -226 0
-225 -227 0
-226 -227 0
-215 -225 0
-215 -228 0
-225 -228 0
-222 -229 0
-222 -230 0
-229 -230 0
-229 -231 0
-229 -232 0
-231 -232 0
-226 -233 0
-226 -234 0
-233 -234 0
-228 -235 0
-228 -236 0
-235 -236 0
-230 -233 0
-230 -237 0
-233 -237 0
-231 -234 0
-231 -235 0
-234 -235 0
-236 -237 0
-236 -238 0
-237 -238 0
-219 -232 0
-219 -239 0
-232 -239 0
-157 -200 0
-157 -240 0
-200 -240 0
-165 -227 0
-165 -240 0
-227 -240 0
-129 -211 0
-129 -241 0
-211 -241 0
-137 -241 0
-137 -242 0
-241 -242 0
-197 -224 0
-197 -243 0
-224 -243 0
-238 -242 0
-238 -243 0
-242 -243 0
-184 -212 0
-184 -239 0
-212 -239 0
-244 245 246 0
244 -245 246 0
244 245 -246 0
-244 -245 -246 0
-487 488 489 0
487 -488 489 0
487 488 -489 0
-487 -488 -489 0
-730 731 732 0
730 -731 732 0
730 731 -732 0
-730 -731 -732 0
-973 974 975 0
973 -974 975 0
973 974 -975 0
-973 -974 -975 0
-244 247 248 0
244 -247 248 0
244 247 -248 0
-244 -247 -248 0
-487 490 491 0
487 -490 491 0
487 490 -491 0
-487 -490 -491 0
-730 733 734 0
730 -733 734 0
730 733 -734 0
-730 -733 -734 0
-973 976 977 0
973 -976 977 0
973 976 -977 0
-973 -976 -977 0
-249 250 251 0
249 -250 251 0
249 250 -251 0
-249 -250 -251 0
-492 493 494 0
492 -493 494 0
492 493 -494 0
-492 -493 -494 0
-735 736 737 0
735 -736 737 0
735 736 -737 0
-735 -736 -737 0
-978 979 980 0
978 -979 980 0
978 979 -980 0
-978 -979 -980 0
-252 253 254 0
252 -253 254 0
252 253 -254 0
-252 -253 -254 0
-495 496 497 0
495 -496 497 0
495 496 -497 0
-495 -496 -497 0
-738 739 740 0
738 -739 740 0
738 739 -740 0
-738 -739 -740 0
-981 982 983 0
981 -982 983 0
981 982 -983 0
-981 -982 -983 0
-245 249 255 0
245 -249 255 0
245 249 -255 0
-245 -249 -255 0
-488 492 498 0
488 -492 498 0
488 492 -498 0
-488 -492 -498 0
-731 735 741 0
731 -735 741 0
731 735 -741 0
-731 -735 -741 0
-974 978 984 0
974 -978 984 0
974 978 -984 0
-974 -978 -984 0
-247 250 252 0
247 -250 252 0
247 250 -252 0
-247 -250 -252 0
-490 493 495 0
490 -493 495 0
490 493 -495 0
-490 -493 -495 0
-733 736 738 0
733 -736 738 0
733 736 -738 0
-733 -736 -738 0
-976 979 981 0
976 -979 981 0
976 979 -981 0
-976 -979 -981 0
-253 255 256 0
253 -255 256 0
253 255 -256 0
-253 -255 -256 0
-496 498 499 0
496 -498 499 0
496 498 -499 0
-496 -498 -499 0
-739 741 742 0
739 -741 742 0
739 741 -742 0
-739 -741 -742 0
-982 984 985 0
982 -984 985 0
982 984 -985 0
-982 -984 -985 0
-257 258 259 0
257 -258 259 0
257 258 -259 0
-257 -258 -259 0
-500 501 502 0
500 -501 502 0
500 501 -502 0
-500 -501 -502 0
-743 744 745 0
743 -744 745 0
743 744 -745 0
-743 -744 -745 0
-986 987 988 0
986 -987 988 0
986 987 -988 0
-986 -987 -988 0
-246 257 260 0
246 -257 260 0
246 257 -260 0
-246 -257 -260 0
-489 500 503 0
489 -500 503 0
489 500 -503 0
-489 -500 -503 0
-732 743 746 0
732 -743 746 0
732 743 -746 0
-732 -743 -746 0
-975 986 989 0
975 -986 989 0
975 986 -989 0
-975 -986 -989 0
-254 261 262 0
254 -261 262 0
254 261 -262 0
-254 -261 -262 0
-497 504 505 0
497 -504 505 0
497 504 -505 0
-497 -504 -505 0
-740 747 748 0
740 -747 748 0
740 747 -748 0
-740 -747 -748 0
-983 990 991 0
983 -990 991 0
983 990 -991 0
-983 -990 -991 0
-261 263 264 0
261 -263 264 0
261 263 -264 0
-261 -263 -264 0
-504 506 507 0
504 -506 507 0
504 506 -507 0
-504 -506 -507 0
-747 749 750 0
747 -749 750 0
747 749 -750 0
-747 -749 -750 0
-990 992 993 0
990 -992 993 0
990 992 -993 0
-990 -992 -993 0
-258 265 266 0
258 -265 266 0
258 265 -266 0
-258 -265 -266 0
-501 508 509 0
501 -508 509 0
501 508 -509 0
-501 -508 -509 0
-744 751 752 0
744 -751 752 0
744 751 -752 0
-744 -751 -752 0
-987 994 995 0
987 -994 995 0
987 994 -995 0
-987 -994 -995 0
-260 267 268 0
260 -267 268 0
260 267 -268 0
-260 -267 -268 0
-503 510 511 0
503 -510 511 0
503 510 -511 0
-503 -510 -511 0
-746 753 754 0
746 -753 754 0
746 753 -754 0
-746 -753 -754 0
-989 996 997 0
989 -996 997 0
989 996 -997 0
-989 -996 -997 0
-262 265 269 0
262 -265 269 0
262 265 -269 0
-262 -265 -269 0
-505 508 512 0
505 -508 512 0
505 508 -512 0
-505 -508 -512 0
-748 751 755 0
748 -751 755 0
748 751 -755 0
-748 -751 -755 0
-991 994 998 0
991 -994 998 0
991 994 -998 0
-991 -994 -998 0
-263 266 267 0
263 -266 267 0
263 266 -267 0
-263 -266 -267 0
-506 509 510 0
506 -509 510 0
506 509 -510 0
-506 -509 -510 0
-749 752 753 0
749 -752 753 0
749 752 -753 0
-749 -752 -753 0
-992 995 996 0
992 -995 996 0
992 995 -996 0
-992 -995 -996 0
-268 269 270 0
268 -269 270 0
268 269 -270 0
-268 -269 -270 0
-511 512 513 0
511 -512 513 0
511 512 -513 0
-511 -512 -513 0
-754 755 756 0
754 -755 756 0
754 755 -756 0
-754 -755 -756 0
-997 998 999 0
997 -998 999 0
997 998 -999 0
-997 -998 -999 0
-251 264 271 0
251 -264 271 0
251 264 -271 0
-251 -264 -271 0
-494 507 514 0
494 -507 514 0
494 507 -514 0
-494 -507 -514 0
-737 750 757 0
737 -750 757 0
737 750 -757 0
-737 -750 -757 0
-980 993 1000 0
980 -993 1000 0
980 993 -1000 0
-980 -993 -1000 0
-270 272 273 0
270 -272 273 0
270 272 -273 0
-270 -272 -273 0
-513 515 516 0
513 -515 516 0
513 515 -516 0
-513 -515 -516 0
-756 758 759 0
756 -758 759 0
756 758 -759 0
-756 -758 -759 0
-999 1001 1002 0
999 -1001 1002 0
999 1001 -1002 0
-999 -1001 -1002 0
-272 274 275 0
272 -274 275 0
272 274 -275 0
-272 -274 -275 0
-515 517 518 0
515 -517 518 0
515 517 -518 0
-515 -517 -518 0
-758 760 761 0
758 -760 761 0
758 760 -761 0
-758 -760 -761 0
-1001 1003 1004 0
1001 -1003 1004 0
1001 1003 -1004 0
-1001 -1003 -1004 0
-276 277 278 0
276 -277 278 0
276 277 -278 0
-276 -277 -278 0
-519 520 521 0
519 -520 521 0
519 520 -521 0
-519 -520 -521 0
-762 763 764 0
762 -763 764 0
762 763 -764 0
-762 -763 -764 0
-1005 1006 1007 0
1005 -1006 1007 0
1005 1006 -1007 0
-1005 -1006 -1007 0
-259 279 280 0
259 -279 280 0
259 279 -280 0
-259 -279 -280 0
-502 522 523 0
502 -522 523 0
502 522 -523 0
-502 -522 -523 0
-745 765 766 0
745 -765 766 0
745 765 -766 0
-745 -765 -766 0
-988 1008 1009 0
988 -1008 1009 0
988 1008 -1009 0
-988 -1008 -1009 0
-273 276 281 0
273 -276 281 0
273 276 -281 0
-273 -276 -281 0
-516 519 524 0
516 -519 524 0
516 519 -524 0
-516 -519 -524 0
-759 762 767 0
759 -762 767 0
759 762 -767 0
-759 -762 -767 0
-1002 1005 1010 0
1002 -1005 1010 0
1002 1005 -1010 0
-1002 -1005 -1010 0
-274 277 279 0
274 -277 279 0
274 277 -279 0
-274 -277 -279 0
-517 520 522 0
517 -520 522 0
517 520 -522 0
-517 -520 -522 0
-760 763 765 0
760 -763 765 0
760 763 -765 0
-760 -763 -765 0
-1003 1006 1008 0
1003 -1006 1008 0
1003 1006 -1008 0
-1003 -1006 -1008 0
-280 281 282 0
280 -281 282 0
280 281 -282 0
-280 -281 -282 0
-523 524 525 0
523 -524 525 0
523 524 -525 0
-523 -524 -525 0
-766 767 768 0
766 -767 768 0
766 767 -768 0
-766 -767 -768 0
-1009 1010 1011 0
1009 -1010 1011 0
1009 1010 -1011 0
-1009 -1010 -1011 0
-283 284 285 0
283 -284 285 0
283 284 -285 0
-283 -284 -285 0
-526 527 528 0
526 -527 528 0
526 527 -528 0
-526 -527 -528 0
-769 770 771 0
769 -770 771 0
769 770 -771 0
-769 -770 -771 0
-1012 1013 1014 0
1012 -1013 1014 0
1012 1013 -1014 0
-1012 -1013 -1014 0
-283 286 287 0
283 -286 287 0
283 286 -287 0
-283 -286 -287 0
-526 529 530 0
526 -529 530 0
526 529 -530 0
-526 -529 -530 0
-769 772 773 0
769 -772 773 0
769 772 -773 0
-769 -772 -773 0
-1012 1015 1016 0
1012 -1015 1016 0
1012 1015 -1016 0
-1012 -1015 -1016 0
-288 289 290 0
288 -289 290 0
288 289 -290 0
-288 -289 -290 0
-531 532 533 0
531 -532 533 0
531 532 -533 0
-531 -532 -533 0
-774 775 776 0
774 -775 776 0
774 775 -776 0
-774 -775 -776 0
-1017 1018 1019 0
1017 -1018 1019 0
1017 1018 -1019 0
-1017 -1018 -1019 0
-291 292 293 0
291 -292 293 0
291 292 -293 0
-291 -292 -293 0
-534 535 536 0
534 -535 536 0
534 535 -536 0
-534 -535 -536 0
-777 778 779 0
777 -778 779 0
777 778 -779 0
-777 -778 -779 0
-1020 1021 1022 0
1020 -1021 1022 0
1020 1021 -1022 0
-1020 -1021 -1022 0
-284 288 294 0
284 -288 294 0
284 288 -294 0
-284 -288 -294 0
-527 531 537 0
527 -531 537 0
527 531 -537 0
-527 -531 -537 0
-770 774 780 0
770 -774 780 0
770 774 -780 0
-770 -774 -780 0
-1013 1017 1023 0
1013 -1017 1023 0
1013 1017 -1023 0
-1013 -1017 -1023 0
-286 289 291 0
286 -289 291 0
286 289 -291 0
-286 -289 -291 0
-529 532 534 0
529 -532 534 0
529 532 -534 0
-529 -532 -534 0
-772 775 777 0
772 -775 777 0
772 775 -777 0
-772 -775 -777 0
-1015 1018 1020 0
1015 -1018 1020 0
1015 1018 -1020 0
-1015 -1018 -1020 0
-292 294 295 0
292 -294 295 0
292 294 -295 0
-292 -294 -295 0
-535 537 538 0
535 -537 538 0
535 537 -538 0
-535 -537 -538 0
-778 780 781 0
778 -780 781 0
778 780 -781 0
-778 -780 -781 0
-1021 1023 1024 0
1021 -1023 1024 0
1021 1023 -1024 0
-1021 -1023 -1024 0
-282 296 297 0
282 -296 297 0
282 296 -297 0
-282 -296 -297 0
-525 539 540 0
525 -539 540 0
525 539 -540 0
-525 -539 -540 0
-768 782 783 0
768 -782 783 0
768 782 -783 0
-768 -782 -783 0
-1011 1025 1026 0
1011 -1025 1026 0
1011 1025 -1026 0
-1011 -1025 -1026 0
-285 296 298 0
285 -296 298 0
285 296 -298 0
-285 -296 -298 0
-528 539 541 0
528 -539 541 0
528 539 -541 0
-528 -539 -541 0
-771 782 784 0
771 -782 784 0
771 782 -784 0
-771 -782 -784 0
-1014 1025 1027 0
1014 -1025 1027 0
1014 1025 -1027 0
-1014 -1025 -1027 0
-293 299 300 0
293 -299 300 0
293 299 -300 0
-293 -299 -300 0
-536 542 543 0
536 -542 543 0
536 542 -543 0
-536 -542 -543 0
-779 785 786 0
779 -785 786 0
779 785 -786 0
-779 -785 -786 0
-1022 1028 1029 0
1022 -1028 1029 0
1022 1028 -1029 0
-1022 -1028 -1029 0
-299 301 302 0
299 -301 302 0
299 301 -302 0
-299 -301 -302 0
-542 544 545 0
542 -544 545 0
542 544 -545 0
-542 -544 -545 0
-785 787 788 0
785 -787 788 0
785 787 -788 0
-785 -787 -788 0
-1028 1030 1031 0
1028 -1030 1031 0
1028 1030 -1031 0
-1028 -1030 -1031 0
-297 303 304 0
297 -303 304 0
297 303 -304 0
-297 -303 -304 0
-540 546 547 0
540 -546 547 0
540 546 -547 0
-540 -546 -547 0
-783 789 790 0
783 -789 790 0
783 789 -790 0
-783 -789 -790 0
-1026 1032 1033 0
1026 -1032 1033 0
1026 1032 -1033 0
-1026 -1032 -1033 0
-298 305 306 0
298 -305 306 0
298 305 -306 0
-298 -305 -306 0
-541 548 549 0
541 -548 549 0
541 548 -549 0
-541 -548 -549 0
-784 791 792 0
784 -791 792 0
784 791 -792 0
-784 -791 -792 0
-1027 1034 1035 0
1027 -1034 1035 0
1027 1034 -1035 0
-1027 -1034 -1035 0
-300 303 307 0
300 -303 307 0
300 303 -307 0
-300 -303 -307 0
-543 546 550 0
543 -546 550 0
543 546 -550 0
-543 -546 -550 0
-786 789 793 0
786 -789 793 0
786 789 -793 0
-786 -789 -793 0
-1029 1032 1036 0
1029 -1032 1036 0
1029 1032 -1036 0
-1029 -1032 -1036 0
-301 304 305 0
301 -304 305 0
301 304 -305 0
-301 -304 -305 0
-544 547 548 0
544 -547 548 0
544 547 -548 0
-544 -547 -548 0
-787 790 791 0
787 -790 791 0
787 790 -791 0
-787 -790 -791 0
-1030 1033 1034 0
1030 -1033 1034 0
1030 1033 -1034 0
-1030 -1033 -1034 0
-275 306 307 0
275 -306 307 0
275 306 -307 0
-275 -306 -307 0
-518 549 550 0
518 -549 550 0
518 549 -550 0
-518 -549 -550 0
-761 792 793 0
761 -792 793 0
761 792 -793 0
-761 -792 -793 0
-1004 1035 1036 0
1004 -1035 1036 0
1004 1035 -1036 0
-1004 -1035 -1036 0
-271 290 302 0
271 -290 302 0
271 290 -302 0
-271 -290 -302 0
-514 533 545 0
514 -533 545 0
514 533 -545 0
-514 -533 -545 0
-757 776 788 0
757 -776 788 0
757 776 -788 0
-757 -776 -788 0
-1000 1019 1031 0
1000 -1019 1031 0
1000 1019 -1031 0
-1000 -1019 -1031 0
-308 309 310 0
308 -309 310 0
308 309 -310 0
-308 -309 -310 0
-551 552 553 0
551 -552 553 0
551 552 -553 0
-551 -552 -553 0
-794 795 796 0
794 -795 796 0
794 795 -796 0
-794 -795 -796 0
-1037 1038 1039 0
1037 -1038 1039 0
1037 1038 -1039 0
-1037 -1038 -1039 0
-308 311 312 0
308 -311 312 0
308 311 -312 0
-308 -311 -312 0
-551 554 555 0
551 -554 555 0
551 554 -555 0
-551 -554 -555 0
-794 797 798 0
794 -797 798 0
794 797 -798 0
-794 -797 -798 0
-1037 1040 1041 0
1037 -1040 1041 0
1037 1040 -1041 0
-1037 -1040 -1041 0
-313 314 315 0
313 -314 315 0
313 314 -315 0
-313 -314 -315 0
-556 557 558 0
556 -557 558 0
556 557 -558 0
-556 -557 -558 0
-799 800 801 0
799 -800 801 0
799 800 -801 0
-799 -800 -801 0
-1042 1043 1044 0
1042 -1043 1044 0
1042 1043 -1044 0
-1042 -1043 -1044 0
-316 317 318 0
316 -317 318 0
316 317 -318 0
-316 -317 -318 0
-559 560 561 0
559 -560 561 0
559 560 -561 0
-559 -560 -561 0
-802 803 804 0
802 -803 804 0
802 803 -804 0
-802 -803 -804 0
-1045 1046 1047 0
1045 -1046 1047 0
1045 1046 -1047 0
-1045 -1046 -1047 0
-309 313 319 0
309 -313 319 0
309 313 -319 0
-309 -313 -319 0
-552 556 562 0
552 -556 562 0
552 556 -562 0
-552 -556 -562 0
-795 799 805 0
795 -799 805 0
795 799 -805 0
-795 -799 -805 0
-1038 1042 1048 0
1038 -1042 1048 0
1038 1042 -1048 0
-1038 -1042 -1048 0
-311 314 316 0
311 -314 316 0
311 314 -316 0
-311 -314 -316 0
-554 557 559 0
554 -557 559 0
554 557 -559 0
-554 -557 -559 0
-797 800 802 0
797 -800 802 0
797 800 -802 0
-797 -800 -802 0
-1040 1043 1045 0
1040 -1043 1045 0
1040 1043 -1045 0
-1040 -1043 -1045 0
-317 319 320 0
317 -319 320 0
317 319 -320 0
-317 -319 -320 0
-560 562 563 0
560 -562 563 0
560 562 -563 0
-560 -562 -563 0
-803 805 806 0
803 -805 806 0
803 805 -806 0
-803 -805 -806 0
-1046 1048 1049 0
1046 -1048 1049 0
1046 1048 -1049 0
-1046 -1048 -1049 0
-321 322 323 0
321 -322 323 0
321 322 -323 0
-321 -322 -323 0
-564 565 566 0
564 -565 566 0
564 565 -566 0
-564 -565 -566 0
-807 808 809 0
807 -808 809 0
807 808 -809 0
-807 -808 -809 0
-1050 1051 1052 0
1050 -1051 1052 0
1050 1051 -1052 0
-1050 -1051 -1052 0
-310 321 324 0
310 -321 324 0
310 321 -324 0
-310 -321 -324 0
-553 564 567 0
553 -564 567 0
553 564 -567 0
-553 -564 -567 0
-796 807 810 0
796 -807 810 0
796 807 -810 0
-796 -807 -810 0
-1039 1050 1053 0
1039 -1050 1053 0
1039 1050 -1053 0
-1039 -1050 -1053 0
-318 325 326 0
318 -325 326 0
318 325 -326 0
-318 -325 -326 0
-561 568 569 0
561 -568 569 0
561 568 -569 0
-561 -568 -569 0
-804 811 812 0
804 -811 812 0
804 811 -812 0
-804 -811 -812 0
-1047 1054 1055 0
1047 -1054 1055 0
1047 1054 -1055 0
-1047 -1054 -1055 0
-325 327 328 0
325 -327 328 0
325 327 -328 0
-325 -327 -328 0
-568 570 571 0
568 -570 571 0
568 570 -571 0
-568 -570 -571 0
-811 813 814 0
811 -813 814 0
811 813 -814 0
-811 -813 -814 0
-1054 1056 1057 0
1054 -1056 1057 0
1054 1056 -1057 0
-1054 -1056 -1057 0
-322 329 330 0
322 -329 330 0
322 329 -330 0
-322 -329 -330 0
-565 572 573 0
565 -572 573 0
565 572 -573 0
-565 -572 -573 0
-808 815 816 0
808 -815 816 0
808 815 -816 0
-808 -815 -816 0
-1051 1058 1059 0
1051 -1058 1059 0
1051 1058 -1059 0
-1051 -1058 -1059 0
-324 331 332 0
324 -331 332 0
324 331 -332 0
-324 -331 -332 0
-567 574 575 0
567 -574 575 0
567 574 -575 0
-567 -574 -575 0
-810 817 818 0
810 -817 818 0
810 817 -818 0
-810 -817 -818 0
-1053 1060 1061 0
1053 -1060 1061 0
1053 1060 -1061 0
-1053 -1060 -1061 0
-326 329 333 0
326 -329 333 0
326 329 -333 0
-326 -329 -333 0
-569 572 576 0
569 -572 576 0
569 572 -576 0
-569 -572 -576 0
-812 815 819 0
812 -815 819 0
812 815 -819 0
-812 -815 -819 0
-1055 1058 1062 0
1055 -1058 1062 0
1055 1058 -1062 0
-1055 -1058 -1062 0
-327 330 331 0
327 -330 331 0
327 330 -331 0
-327 -330 -331 0
-570 573 574 0
570 -573 574 0
570 573 -574 0
-570 -573 -574 0
-813 816 817 0
813 -816 817 0
813 816 -817 0
-813 -816 -817 0
-1056 1059 1060 0
1056 -1059 1060 0
1056 1059 -1060 0
-1056 -1059 -1060 0
-332 333 334 0
332 -333 334 0
332 333 -334 0
-332 -333 -334 0
-575 576 577 0
575 -576 577 0
575 576 -577 0
-575 -576 -577 0
-818 819 820 0
818 -819 820 0
818 819 -820 0
-818 -819 -820 0
-1061 1062 1063 0
1061 -1062 1063 0
1061 1062 -1063 0
-1061 -1062 -1063 0
-315 328 335 0
315 -328 335 0
315 328 -335 0
-315 -328 -335 0
-558 571 578 0
558 -571 578 0
558 571 -578 0
-558 -571 -578 0
-801 814 821 0
801 -814 821 0
801 814 -821 0
-801 -814 -821 0
-1044 1057 1064 0
1044 -1057 1064 0
1044 1057 -1064 0
-1044 -1057 -1064 0
-336 337 338 0
336 -337 338 0
336 337 -338 0
-336 -337 -338 0
-579 580 581 0
579 -580 581 0
579 580 -581 0
-579 -580 -581 0
-822 823 824 0
822 -823 824 0
822 823 -824 0
-822 -823 -824 0
-1065 1066 1067 0
1065 -1066 1067 0
1065 1066 -1067 0
-1065 -1066 -1067 0
-336 339 340 0
336 -339 340 0
336 339 -340 0
-336 -339 -340 0
-579 582 583 0
579 -582 583 0
579 582 -583 0
-579 -582 -583 0
-822 825 826 0
822 -825 826 0
822 825 -826 0
-822 -825 -826 0
-1065 1068 1069 0
1065 -1068 1069 0
1065 1068 -1069 0
-1065 -1068 -1069 0
-341 342 343 0
341 -342 343 0
341 342 -343 0
-341 -342 -343 0
-584 585 586 0
584 -585 586 0
584 585 -586 0
-584 -585 -586 0
-827 828 829 0
827 -828 829 0
827 828 -829 0
-827 -828 -829 0
-1070 1071 1072 0
1070 -1071 1072 0
1070 1071 -1072 0
-1070 -1071 -1072 0
-344 345 346 0
344 -345 346 0
344 345 -346 0
-344 -345 -346 0
-587 588 589 0
587 -588 589 0
587 588 -589 0
-587 -588 -589 0
-830 831 832 0
830 -831 832 0
830 831 -832 0
-830 -831 -832 0
-1073 1074 1075 0
1073 -1074 1075 0
1073 1074 -1075 0
-1073 -1074 -1075 0
-337 341 347 0
337 -341 347 0
337 341 -347 0
-337 -341 -347 0
-580 584 590 0
580 -584 590 0
580 584 -590 0
-580 -584 -590 0
-823 827 833 0
823 -827 833 0
823 827 -833 0
-823 -827 -833 0
-1066 1070 1076 0
1066 -1070 1076 0
1066 1070 -1076 0
-1066 -1070 -1076 0
-339 342 344 0
339 -342 344 0
339 342 -344 0
-339 -342 -344 0
-582 585 587 0
582 -585 587 0
582 585 -587 0
-582 -585 -587 0
-825 828 830 0
825 -828 830 0
825 828 -830 0
-825 -828 -830 0
-1068 1071 1073 0
1068 -1071 1073 0
1068 1071 -1073 0
-1068 -1071 -1073 0
-345 347 348 0
345 -347 348 0
345 347 -348 0
-345 -347 -348 0
-588 590 591 0
588 -590 591 0
588 590 -591 0
-588 -590 -591 0
-831 833 834 0
831 -833 834 0
831 833 -834 0
-831 -833 -834 0
-1074 1076 1077 0
1074 -1076 1077 0
1074 1076 -1077 0
-1074 -1076 -1077 0
-349 350 351 0
349 -350 351 0
349 350 -351 0
-349 -350 -351 0
-592 593 594 0
592 -593 594 0
592 593 -594 0
-592 -593 -594 0
-835 836 837 0
835 -836 837 0
835 836 -837 0
-835 -836 -837 0
-1078 1079 1080 0
1078 -1079 1080 0
1078 1079 -1080 0
-1078 -1079 -1080 0
-338 349 352 0
338 -349 352 0
338 349 -352 0
-338 -349 -352 0
-581 592 595 0
581 -592 595 0
581 592 -595 0
-581 -592 -595 0
-824 835 838 0
824 -835 838 0
824 835 -838 0
-824 -835 -838 0
-1067 1078 1081 0
1067 -1078 1081 0
1067 1078 -1081 0
-1067 -1078 -1081 0
-346 353 354 0
346 -353 354 0
346 353 -354 0
-346 -353 -354 0
-589 596 597 0
589 -596 597 0
589 596 -597 0
-589 -596 -597 0
-832 839 840 0
832 -839 840 0
832 839 -840 0
-832 -839 -840 0
-1075 1082 1083 0
1075 -1082 1083 0
1075 1082 -1083 0
-1075 -1082 -1083 0
-353 355 356 0
353 -355 356 0
353 355 -356 0
-353 -355 -356 0
-596 598 599 0
596 -598 599 0
596 598 -599 0
-596 -598 -599 0
-839 841 842 0
839 -841 842 0
839 841 -842 0
-839 -841 -842 0
-1082 1084 1085 0
1082 -1084 1085 0
1082 1084 -1085 0
-1082 -1084 -1085 0
-350 357 358 0
350 -357 358 0
350 357 -358 0
-350 -357 -358 0
-593 600 601 0
593 -600 601 0
593 600 -601 0
-593 -600 -601 0
-836 843 844 0
836 -843 844 0
836 843 -844 0
-836 -843 -844 0
-1079 1086 1087 0
1079 -1086 1087 0
1079 1086 -1087 0
-1079 -1086 -1087 0
-352 359 360 0
352 -359 360 0
352 359 -360 0
-352 -359 -360 0
-595 602 603 0
595 -602 603 0
595 602 -603 0
-595 -602 -603 0
-838 845 846 0
838 -845 846 0
838 845 -846 0
-838 -845 -846 0
-1081 1088 1089 0
1081 -1088 1089 0
1081 1088 -1089 0
-1081 -1088 -1089 0
-354 357 361 0
354 -357 361 0
354 357 -361 0
-354 -357 -361 0
-597 600 604 0
597 -600 604 0
597 600 -604 0
-597 -600 -604 0
-840 843 847 0
840 -843 847 0
840 843 -847 0
-840 -843 -847 0
-1083 1086 1090 0
1083 -1086 1090 0
1083 1086 -1090 0
-1083 -1086 -1090 0
-355 358 359 0
355 -358 359 0
355 358 -359 0
-355 -358 -359 0
-598 601 602 0
598 -601 602 0
598 601 -602 0
-598 -601 -602 0
-841 844 845 0
841 -844 845 0
841 844 -845 0
-841 -844 -845 0
-1084 1087 1088 0
1084 -1087 1088 0
1084 1087 -1088 0
-1084 -1087 -1088 0
-360 361 362 0
360 -361 362 0
360 361 -362 0
-360 -361 -362 0
-603 604 605 0
603 -604 605 0
603 604 -605 0
-603 -604 -605 0
-846 847 848 0
846 -847 848 0
846 847 -848 0
-846 -847 -848 0
-1089 1090 1091 0
1089 -1090 1091 0
1089 1090 -1091 0
-1089 -1090 -1091 0
-343 356 363 0
343 -356 363 0
343 356 -363 0
-343 -356 -363 0
-586 599 606 0
586 -599 606 0
586 599 -606 0
-586 -599 -606 0
-829 842 849 0
829 -842 849 0
829 842 -849 0
-829 -842 -849 0
-1072 1085 1092 0
1072 -1085 1092 0
1072 1085 -1092 0
-1072 -1085 -1092 0
-287 323 364 0
287 -323 364 0
287 323 -364 0
-287 -323 -364 0
-530 566 607 0
530 -566 607 0
530 566 -607 0
-530 -566 -607 0
-773 809 850 0
773 -809 850 0
773 809 -850 0
-773 -809 -850 0
-1016 1052 1093 0
1016 -1052 1093 0
1016 1052 -1093 0
-1016 -1052 -1093 0
-295 351 364 0
295 -351 364 0
295 351 -364 0
-295 -351 -364 0
-538 594 607 0
538 -594 607 0
538 594 -607 0
-538 -594 -607 0
-781 837 850 0
781 -837 850 0
781 837 -850 0
-781 -837 -850 0
-1024 1080 1093 0
1024 -1080 1093 0
1024 1080 -1093 0
-1024 -1080 -1093 0
-248 334 365 0
248 -334 365 0
248 334 -365 0
-248 -334 -365 0
-491 577 608 0
491 -577 608 0
491 577 -608 0
-491 -577 -608 0
-734 820 851 0
734 -820 851 0
734 820 -851 0
-734 -820 -851 0
-977 1063 1094 0
977 -1063 1094 0
977 1063 -1094 0
-977 -1063 -1094 0
-256 365 366 0
256 -365 366 0
256 365 -366 0
-256 -365 -366 0
-499 608 609 0
499 -608 609 0
499 608 -609 0
-499 -608 -609 0
-742 851 852 0
742 -851 852 0
742 851 -852 0
-742 -851 -852 0
-985 1094 1095 0
985 -1094 1095 0
985 1094 -1095 0
-985 -1094 -1095 0
-362 366 367 0
362 -366 367 0
362 366 -367 0
-362 -366 -367 0
-605 609 610 0
605 -609 610 0
605 609 -610 0
-605 -609 -610 0
-848 852 853 0
848 -852 853 0
848 852 -853 0
-848 -852 -853 0
-1091 1095 1096 0
1091 -1095 1096 0
1091 1095 -1096 0
-1091 -1095 -1096 0
-278 335 363 0
278 -335 363 0
278 335 -363 0
-278 -335 -363 0
-521 578 606 0
521 -578 606 0
521 578 -606 0
-521 -578 -606 0
-764 821 849 0
764 -821 849 0
764 821 -849 0
-764 -821 -849 0
-1007 1064 1092 0
1007 -1064 1092 0
1007 1064 -1092 0
-1007 -1064 -1092 0
-368 369 370 0
368 -369 370 0
368 369 -370 0
-368 -369 -370 0
-611 612 613 0
611 -612 613 0
611 612 -613 0
-611 -612 -613 0
-854 855 856 0
854 -855 856 0
854 855 -856 0
-854 -855 -856 0
-1097 1098 1099 0
1097 -1098 1099 0
1097 1098 -1099 0
-1097 -1098 -1099 0
-368 371 372 0
368 -371 372 0
368 371 -372 0
-368 -371 -372 0
-611 614 615 0
611 -614 615 0
611 614 -615 0
-611 -614 -615 0
-854 857 858 0
854 -857 858 0
854 857 -858 0
-854 -857 -858 0
-1097 1100 1101 0
1097 -1100 1101 0
1097 1100 -1101 0
-1097 -1100 -1101 0
-373 374 375 0
373 -374 375 0
373 374 -375 0
-373 -374 -375 0
-616 617 618 0
616 -617 618 0
616 617 -618 0
-616 -617 -618 0
-859 860 861 0
859 -860 861 0
859 860 -861 0
-859 -860 -861 0
-1102 1103 1104 0
1102 -1103 1104 0
1102 1103 -1104 0
-1102 -1103 -1104 0
-376 377 378 0
376 -377 378 0
376 377 -378 0
-376 -377 -378 0
-619 620 621 0
619 -620 621 0
619 620 -621 0
-619 -620 -621 0
-862 863 864 0
862 -863 864 0
862 863 -864 0
-862 -863 -864 0
-1105 1106 1107 0
1105 -1106 1107 0
1105 1106 -1107 0
-1105 -1106 -1107 0
-369 373 379 0
369 -373 379 0
369 373 -379 0
-369 -373 -379 0
-612 616 622 0
612 -616 622 0
612 616 -622 0
-612 -616 -622 0
-855 859 865 0
855 -859 865 0
855 859 -865 0
-855 -859 -865 0
-1098 1102 1108 0
1098 -1102 1108 0
1098 1102 -1108 0
-1098 -1102 -1108 0
-371 374 376 0
371 -374 376 0
371 374 -376 0
-371 -374 -376 0
-614 617 619 0
614 -617 619 0
614 617 -619 0
-614 -617 -619 0
-857 860 862 0
857 -860 862 0
857 860 -862 0
-857 -860 -862 0
-1100 1103 1105 0
1100 -1103 1105 0
1100 1103 -1105 0
-1100 -1103 -1105 0
-377 379 380 0
377 -379 380 0
377 379 -380 0
-377 -379 -380 0
-620 622 623 0
620 -622 623 0
620 622 -623 0
-620 -622 -623 0
-863 865 866 0
863 -865 866 0
863 865 -866 0
-863 -865 -866 0
-1106 1108 1109 0
1106 -1108 1109 0
1106 1108 -1109 0
-1106 -1108 -1109 0
-381 382 383 0
381 -382 383 0
381 382 -383 0
-381 -382 -383 0
-624 625 626 0
624 -625 626 0
624 625 -626 0
-624 -625 -626 0
-867 868 869 0
867 -868 869 0
867 868 -869 0
-867 -868 -869 0
-1110 1111 1112 0
1110 -1111 1112 0
1110 1111 -1112 0
-1110 -1111 -1112 0
-370 381 384 0
370 -381 384 0
370 381 -384 0
-370 -381 -384 0
-613 624 627 0
613 -624 627 0
613 624 -627 0
-613 -624 -627 0
-856 867 870 0
856 -867 870 0
856 867 -870 0
-856 -867 -870 0
-1099 1110 1113 0
1099 -1110 1113 0
1099 1110 -1113 0
-1099 -1110 -1113 0
-378 385 386 0
378 -385 386 0
378 385 -386 0
-378 -385 -386 0
-621 628 629 0
621 -628 629 0
621 628 -629 0
-621 -628 -629 0
-864 871 872 0
864 -871 872 0
864 871 -872 0
-864 -871 -872 0
-1107 1114 1115 0
1107 -1114 1115 0
1107 1114 -1115 0
-1107 -1114 -1115 0
-385 387 388 0
385 -387 388 0
385 387 -388 0
-385 -387 -388 0
-628 630 631 0
628 -630 631 0
628 630 -631 0
-628 -630 -631 0
-871 873 874 0
871 -873 874 0
871 873 -874 0
-871 -873 -874 0
-1114 1116 1117 0
1114 -1116 1117 0
1114 1116 -1117 0
-1114 -1116 -1117 0
-382 389 390 0
382 -389 390 0
382 389 -390 0
-382 -389 -390 0
-625 632 633 0
625 -632 633 0
625 632 -633 0
-625 -632 -633 0
-868 875 876 0
868 -875 876 0
868 875 -876 0
-868 -875 -876 0
-1111 1118 1119 0
1111 -1118 1119 0
1111 1118 -1119 0
-1111 -1118 -1119 0
-384 391 392 0
384 -391 392 0
384 391 -392 0
-384 -391 -392 0
-627 634 635 0
627 -634 635 0
627 634 -635 0
-627 -634 -635 0
-870 877 878 0
870 -877 878 0
870 877 -878 0
-870 -877 -878 0
-1113 1120 1121 0
1113 -1120 1121 0
1113 1120 -1121 0
-1113 -1120 -1121 0
-386 389 393 0
386 -389 393 0
386 389 -393 0
-386 -389 -393 0
-629 632 636 0
629 -632 636 0
629 632 -636 0
-629 -632 -636 0
-872 875 879 0
872 -875 879 0
872 875 -879 0
-872 -875 -879 0
-1115 1118 1122 0
1115 -1118 1122 0
1115 1118 -1122 0
-1115 -1118 -1122 0
-387 390 391 0
387 -390 391 0
387 390 -391 0
-387 -390 -391 0
-630 633 634 0
630 -633 634 0
630 633 -634 0
-630 -633 -634 0
-873 876 877 0
873 -876 877 0
873 876 -877 0
-873 -876 -877 0
-1116 1119 1120 0
1116 -1119 1120 0
1116 1119 -1120 0
-1116 -1119 -1120 0
-392 393 394 0
392 -393 394 0
392 393 -394 0
-392 -393 -394 0
-635 636 637 0
635 -636 637 0
635 636 -637 0
-635 -636 -637 0
-878 879 880 0
878 -879 880 0
878 879 -880 0
-878 -879 -880 0
-1121 1122 1123 0
1121 -1122 1123 0
1121 1122 -1123 0
-1121 -1122 -1123 0
-375 388 395 0
375 -388 395 0
375 388 -395 0
-375 -388 -395 0
-618 631 638 0
618 -631 638 0
618 631 -638 0
-618 -631 -638 0
-861 874 881 0
861 -874 881 0
861 874 -881 0
-861 -874 -881 0
-1104 1117 1124 0
1104 -1117 1124 0
1104 1117 -1124 0
-1104 -1117 -1124 0
-396 397 398 0
396 -397 398 0
396 397 -398 0
-396 -397 -398 0
-639 640 641 0
639 -640 641 0
639 640 -641 0
-639 -640 -641 0
-882 883 884 0
882 -883 884 0
882 883 -884 0
-882 -883 -884 0
-1125 1126 1127 0
1125 -1126 1127 0
1125 1126 -1127 0
-1125 -1126 -1127 0
-396 399 400 0
396 -399 400 0
396 399 -400 0
-396 -399 -400 0
-639 642 643 0
639 -642 643 0
639 642 -643 0
-639 -642 -643 0
-882 885 886 0
882 -885 886 0
882 885 -886 0
-882 -885 -886 0
-1125 1128 1129 0
1125 -1128 1129 0
1125 1128 -1129 0
-1125 -1128 -1129 0
-401 402 403 0
401 -402 403 0
401 402 -403 0
-401 -402 -403 0
-644 645 646 0
644 -645 646 0
644 645 -646 0
-644 -645 -646 0
-887 888 889 0
887 -888 889 0
887 888 -889 0
-887 -888 -889 0
-1130 1131 1132 0
1130 -1131 1132 0
1130 1131 -1132 0
-1130 -1131 -1132 0
-404 405 406 0
404 -405 406 0
404 405 -406 0
-404 -405 -406 0
-647 648 649 0
647 -648 649 0
647 648 -649 0
-647 -648 -649 0
-890 891 892 0
890 -891 892 0
890 891 -892 0
-890 -891 -892 0
-1133 1134 1135 0
1133 -1134 1135 0
1133 1134 -1135 0
-1133 -1134 -1135 0
-397 401 407 0
397 -401 407 0
397 401 -407 0
-397 -401 -407 0
-640 644 650 0
640 -644 650 0
640 644 -650 0
-640 -644 -650 0
-883 887 893 0
883 -887 893 0
883 887 -893 0
-883 -887 -893 0
-1126 1130 1136 0
1126 -1130 1136 0
1126 1130 -1136 0
-1126 -1130 -1136 0
-399 402 404 0
399 -402 404 0
399 402 -404 0
-399 -402 -404 0
-642 645 647 0
642 -645 647 0
642 645 -647 0
-642 -645 -647 0
-885 888 890 0
885 -888 890 0
885 888 -890 0
-885 -888 -890 0
-1128 1131 1133 0
1128 -1131 1133 0
1128 1131 -1133 0
-1128 -1131 -1133 0
-405 407 408 0
405 -407 408 0
405 407 -408 0
-405 -407 -408 0
-648 650 651 0
648 -650 651 0
648 650 -651 0
-648 -650 -651 0
-891 893 894 0
891 -893 894 0
891 893 -894 0
-891 -893 -894 0
-1134 1136 1137 0
1134 -1136 1137 0
1134 1136 -1137 0
-1134 -1136 -1137 0
-409 410 411 0
409 -410 411 0
409 410 -411 0
-409 -410 -411 0
-652 653 654 0
652 -653 654 0
652 653 -654 0
-652 -653 -654 0
-895 896 897 0
895 -896 897 0
895 896 -897 0
-895 -896 -897 0
-1138 1139 1140 0
1138 -1139 1140 0
1138 1139 -1140 0
-1138 -1139 -1140 0
-398 409 412 0
398 -409 412 0
398 409 -412 0
-398 -409 -412 0
-641 652 655 0
641 -652 655 0
641 652 -655 0
-641 -652 -655 0
-884 895 898 0
884 -895 898 0
884 895 -898 0
-884 -895 -898 0
-1127 1138 1141 0
1127 -1138 1141 0
1127 1138 -1141 0
-1127 -1138 -1141 0
-406 413 414 0
406 -413 414 0
406 413 -414 0
-406 -413 -414 0
-649 656 657 0
649 -656 657 0
649 656 -657 0
-649 -656 -657 0
-892 899 900 0
892 -899 900 0
892 899 -900 0
-892 -899 -900 0
-1135 1142 1143 0
1135 -1142 1143 0
1135 1142 -1143 0
-1135 -1142 -1143 0
-413 415 416 0
413 -415 416 0
413 415 -416 0
-413 -415 -416 0
-656 658 659 0
656 -658 659 0
656 658 -659 0
-656 -658 -659 0
-899 901 902 0
899 -901 902 0
899 901 -902 0
-899 -901 -902 0
-1142 1144 1145 0
1142 -1144 1145 0
1142 1144 -1145 0
-1142 -1144 -1145 0
-410 417 418 0
410 -417 418 0
410 417 -418 0
-410 -417 -418 0
-653 660 661 0
653 -660 661 0
653 660 -661 0
-653 -660 -661 0
-896 903 904 0
896 -903 904 0
896 903 -904 0
-896 -903 -904 0
-1139 1146 1147 0
1139 -1146 1147 0
1139 1146 -1147 0
-1139 -1146 -1147 0
-412 419 420 0
412 -419 420 0
412 419 -420 0
-412 -419 -420 0
-655 662 663 0
655 -662 663 0
655 662 -663 0
-655 -662 -663 0
-898 905 906 0
898 -905 906 0
898 905 -906 0
-898 -905 -906 0
-1141 1148 1149 0
1141 -1148 1149 0
1141 1148 -1149 0
-1141 -1148 -1149 0
-414 417 421 0
414 -417 421 0
414 417 -421 0
-414 -417 -421 0
-657 660 664 0
657 -660 664 0
657 660 -664 0
-657 -660 -664 0
-900 903 907 0
900 -903 907 0
900 903 -907 0
-900 -903 -907 0
-1143 1146 1150 0
1143 -1146 1150 0
1143 1146 -1150 0
-1143 -1146 -1150 0
-415 418 419 0
415 -418 419 0
415 418 -419 0
-415 -418 -419 0
-658 661 662 0
658 -661 662 0
658 661 -662 0
-658 -661 -662 0
-901 904 905 0
901 -904 905 0
901 904 -905 0
-901 -904 -905 0
-1144 1147 1148 0
1144 -1147 1148 0
1144 1147 -1148 0
-1144 -1147 -1148 0
-420 421 422 0
420 -421 422 0
420 421 -422 0
-420 -421 -422 0
-663 664 665 0
663 -664 665 0
663 664 -665 0
-663 -664 -665 0
-906 907 908 0
906 -907 908 0
906 907 -908 0
-906 -907 -908 0
-1149 1150 1151 0
1149 -1150 1151 0
1149 1150 -1151 0
-1149 -1150 -1151 0
-403 416 423 0
403 -416 423 0
403 416 -423 0
-403 -416 -423 0
-646 659 666 0
646 -659 666 0
646 659 -666 0
-646 -659 -666 0
-889 902 909 0
889 -902 909 0
889 902 -909 0
-889 -902 -909 0
-1132 1145 1152 0
1132 -1145 1152 0
1132 1145 -1152 0
-1132 -1145 -1152 0
-340 383 424 0
340 -383 424 0
340 383 -424 0
-340 -383 -424 0
-583 626 667 0
583 -626 667 0
583 626 -667 0
-583 -626 -667 0
-826 869 910 0
826 -869 910 0
826 869 -910 0
-826 -869 -910 0
-1069 1112 1153 0
1069 -1112 1153 0
1069 1112 -1153 0
-1069 -1112 -1153 0
-348 411 424 0
348 -411 424 0
348 411 -424 0
-348 -411 -424 0
-591 654 667 0
591 -654 667 0
591 654 -667 0
-591 -654 -667 0
-834 897 910 0
834 -897 910 0
834 897 -910 0
-834 -897 -910 0
-1077 1140 1153 0
1077 -1140 1153 0
1077 1140 -1153 0
-1077 -1140 -1153 0
-312 394 425 0
312 -394 425 0
312 394 -425 0
-312 -394 -425 0
-555 637 668 0
555 -637 668 0
555 637 -668 0
-555 -637 -668 0
-798 880 911 0
798 -880 911 0
798 880 -911 0
-798 -880 -911 0
-1041 1123 1154 0
1041 -1123 1154 0
1041 1123 -1154 0
-1041 -1123 -1154 0
-320 425 426 0
320 -425 426 0
320 425 -426 0
-320 -425 -426 0
-563 668 669 0
563 -668 669 0
563 668 -669 0
-563 -668 -669 0
-806 911 912 0
806 -911 912 0
806 911 -912 0
-806 -911 -912 0
-1049 1154 1155 0
1049 -1154 1155 0
1049 1154 -1155 0
-1049 -1154 -1155 0
-422 426 427 0
422 -426 427 0
422 426 -427 0
-422 -426 -427 0
-665 669 670 0
665 -669 670 0
665 669 -670 0
-665 -669 -670 0
-908 912 913 0
908 -912 913 0
908 912 -913 0
-908 -912 -913 0
-1151 1155 1156 0
1151 -1155 1156 0
1151 1155 -1156 0
-1151 -1155 -1156 0
-367 395 423 0
367 -395 423 0
367 395 -423 0
-367 -395 -423 0
-610 638 666 0
610 -638 666 0
610 638 -666 0
-610 -638 -666 0
-853 881 909 0
853 -881 909 0
853 881 -909 0
-853 -881 -909 0
-1096 1124 1152 0
1096 -1124 1152 0
1096 1124 -1152 0
-1096 -1124 -1152 0
-428 429 430 0
428 -429 430 0
428 429 -430 0
-428 -429 -430 0
-671 672 673 0
671 -672 673 0
671 672 -673 0
-671 -672 -673 0
-914 915 916 0
914 -915 916 0
914 915 -916 0
-914 -915 -916 0
-1157 1158 1159 0
1157 -1158 1159 0
1157 1158 -1159 0
-1157 -1158 -1159 0
-428 431 432 0
428 -431 432 0
428 431 -432 0
-428 -431 -432 0
-671 674 675 0
671 -674 675 0
671 674 -675 0
-671 -674 -675 0
-914 917 918 0
914 -917 918 0
914 917 -918 0
-914 -917 -918 0
-1157 1160 1161 0
1157 -1160 1161 0
1157 1160 -1161 0
-1157 -1160 -1161 0
-433 434 435 0
433 -434 435 0
433 434 -435 0
-433 -434 -435 0
-676 677 678 0
676 -677 678 0
676 677 -678 0
-676 -677 -678 0
-919 920 921 0
919 -920 921 0
919 920 -921 0
-919 -920 -921 0
-1162 1163 1164 0
1162 -1163 1164 0
1162 1163 -1164 0
-1162 -1163 -1164 0
-436 437 438 0
436 -437 438 0
436 437 -438 0
-436 -437 -438 0
-679 680 681 0
679 -680 681 0
679 680 -681 0
-679 -680 -681 0
-922 923 924 0
922 -923 924 0
922 923 -924 0
-922 -923 -924 0
-1165 1166 1167 0
1165 -1166 1167 0
1165 1166 -1167 0
-1165 -1166 -1167 0
-429 433 439 0
429 -433 439 0
429 433 -439 0
-429 -433 -439 0
-672 676 682 0
672 -676 682 0
672 676 -682 0
-672 -676 -682 0
-915 919 925 0
915 -919 925 0
915 919 -925 0
-915 -919 -925 0
-1158 1162 1168 0
1158 -1162 1168 0
1158 1162 -1168 0
-1158 -1162 -1168 0
-431 434 436 0
431 -434 436 0
431 434 -436 0
-431 -434 -436 0
-674 677 679 0
674 -677 679 0
674 677 -679 0
-674 -677 -679 0
-917 920 922 0
917 -920 922 0
917 920 -922 0
-917 -920 -922 0
-1160 1163 1165 0
1160 -1163 1165 0
1160 1163 -1165 0
-1160 -1163 -1165 0
-437 439 440 0
437 -439 440 0
437 439 -440 0
-437 -439 -440 0
-680 682 683 0
680 -682 683 0
680 682 -683 0
-680 -682 -683 0
-923 925 926 0
923 -925 926 0
923 925 -926 0
-923 -925 -926 0
-1166 1168 1169 0
1166 -1168 1169 0
1166 1168 -1169 0
-1166 -1168 -1169 0
-441 442 443 0
441 -442 443 0
441 442 -443 0
-441 -442 -443 0
-684 685 686 0
684 -685 686 0
684 685 -686 0
-684 -685 -686 0
-927 928 929 0
927 -928 929 0
927 928 -929 0
-927 -928 -929 0
-1170 1171 1172 0
1170 -1171 1172 0
1170 1171 -1172 0
-1170 -1171 -1172 0
-430 441 444 0
430 -441 444 0
430 441 -444 0
-430 -441 -444 0
-673 684 687 0
673 -684 687 0
673 684 -687 0
-673 -684 -687 0
-916 927 930 0
916 -927 930 0
916 927 -930 0
-916 -927 -930 0
-1159 1170 1173 0
1159 -1170 1173 0
1159 1170 -1173 0
-1159 -1170 -1173 0
-438 445 446 0
438 -445 446 0
438 445 -446 0
-438 -445 -446 0
-681 688 689 0
681 -688 689 0
681 688 -689 0
-681 -688 -689 0
-924 931 932 0
924 -931 932 0
924 931 -932 0
-924 -931 -932 0
-1167 1174 1175 0
1167 -1174 1175 0
1167 1174 -1175 0
-1167 -1174 -1175 0
-445 447 448 0
445 -447 448 0
445 447 -448 0
-445 -447 -448 0
-688 690 691 0
688 -690 691 0
688 690 -691 0
-688 -690 -691 0
-931 933 934 0
931 -933 934 0
931 933 -934 0
-931 -933 -934 0
-1174 1176 1177 0
1174 -1176 1177 0
1174 1176 -1177 0
-1174 -1176 -1177 0
-442 449 450 0
442 -449 450 0
442 449 -450 0
-442 -449 -450 0
-685 692 693 0
685 -692 693 0
685 692 -693 0
-685 -692 -693 0
-928 935 936 0
928 -935 936 0
928 935 -936 0
-928 -935 -936 0
-1171 1178 1179 0
1171 -1178 1179 0
1171 1178 -1179 0
-1171 -1178 -1179 0
-444 451 452 0
444 -451 452 0
444 451 -452 0
-444 -451 -452 0
-687 694 695 0
687 -694 695 0
687 694 -695 0
-687 -694 -695 0
-930 937 938 0
930 -937 938 0
930 937 -938 0
-930 -937 -938 0
-1173 1180 1181 0
1173 -1180 1181 0
1173 1180 -1181 0
-1173 -1180 -1181 0
-446 449 453 0
446 -449 453 0
446 449 -453 0
-446 -449 -453 0
-689 692 696 0
689 -692 696 0
689 692 -696 0
-689 -692 -696 0
-932 935 939 0
932 -935 939 0
932 935 -939 0
-932 -935 -939 0
-1175 1178 1182 0
1175 -1178 1182 0
1175 1178 -1182 0
-1175 -1178 -1182 0
-447 450 451 0
447 -450 451 0
447 450 -451 0
-447 -450 -451 0
-690 693 694 0
690 -693 694 0
690 693 -694 0
-690 -693 -694 0
-933 936 937 0
933 -936 937 0
933 936 -937 0
-933 -936 -937 0
-1176 1179 1180 0
1176 -1179 1180 0
1176 1179 -1180 0
-1176 -1179 -1180 0
-452 453 454 0
452 -453 454 0
452 453 -454 0
-452 -453 -454 0
-695 696 697 0
695 -696 697 0
695 696 -697 0
-695 -696 -697 0
-938 939 940 0
938 -939 940 0
938 939 -940 0
-938 -939 -940 0
-1181 1182 1183 0
1181 -1182 1183 0
1181 1182 -1183 0
-1181 -1182 -1183 0
-435 448 455 0
435 -448 455 0
435 448 -455 0
-435 -448 -455 0
-678 691 698 0
678 -691 698 0
678 691 -698 0
-678 -691 -698 0
-921 934 941 0
921 -934 941 0
921 934 -941 0
-921 -934 -941 0
-1164 1177 1184 0
1164 -1177 1184 0
1164 1177 -1184 0
-1164 -1177 -1184 0
-456 457 458 0
456 -457 458 0
456 457 -458 0
-456 -457 -458 0
-699 700 701 0
699 -700 701 0
699 700 -701 0
-699 -700 -701 0
-942 943 944 0
942 -943 944 0
942 943 -944 0
-942 -943 -944 0
-1185 1186 1187 0
1185 -1186 1187 0
1185 1186 -1187 0
-1185 -1186 -1187 0
-432 456 459 0
432 -456 459 0
432 456 -459 0
-432 -456 -459 0
-675 699 702 0
675 -699 702 0
675 699 -702 0
-675 -699 -702 0
-918 942 945 0
918 -942 945 0
918 942 -945 0
-918 -942 -945 0
-1161 1185 1188 0
1161 -1185 1188 0
1161 1185 -1188 0
-1161 -1185 -1188 0
-460 461 462 0
460 -461 462 0
460 461 -462 0
-460 -461 -462 0
-703 704 705 0
703 -704 705 0
703 704 -705 0
-703 -704 -705 0
-946 947 948 0
946 -947 948 0
946 947 -948 0
-946 -947 -948 0
-1189 1190 1191 0
1189 -1190 1191 0
1189 1190 -1191 0
-1189 -1190 -1191 0
-463 464 465 0
463 -464 465 0
463 464 -465 0
-463 -464 -465 0
-706 707 708 0
706 -707 708 0
706 707 -708 0
-706 -707 -708 0
-949 950 951 0
949 -950 951 0
949 950 -951 0
-949 -950 -951 0
-1192 1193 1194 0
1192 -1193 1194 0
1192 1193 -1194 0
-1192 -1193 -1194 0
-457 460 466 0
457 -460 466 0
457 460 -466 0
-457 -460 -466 0
-700 703 709 0
700 -703 709 0
700 703 -709 0
-700 -703 -709 0
-943 946 952 0
943 -946 952 0
943 946 -952 0
-943 -946 -952 0
-1186 1189 1195 0
1186 -1189 1195 0
1186 1189 -1195 0
-1186 -1189 -1195 0
-459 461 463 0
459 -461 463 0
459 461 -463 0
-459 -461 -463 0
-702 704 706 0
702 -704 706 0
702 704 -706 0
-702 -704 -706 0
-945 947 949 0
945 -947 949 0
945 947 -949 0
-945 -947 -949 0
-1188 1190 1192 0
1188 -1190 1192 0
1188 1190 -1192 0
-1188 -1190 -1192 0
-464 466 467 0
464 -466 467 0
464 466 -467 0
-464 -466 -467 0
-707 709 710 0
707 -709 710 0
707 709 -710 0
-707 -709 -710 0
-950 952 953 0
950 -952 953 0
950 952 -953 0
-950 -952 -953 0
-1193 1195 1196 0
1193 -1195 1196 0
1193 1195 -1196 0
-1193 -1195 -1196 0
-468 469 470 0
468 -469 470 0
468 469 -470 0
-468 -469 -470 0
-711 712 713 0
711 -712 713 0
711 712 -713 0
-711 -712 -713 0
-954 955 956 0
954 -955 956 0
954 955 -956 0
-954 -955 -956 0
-1197 1198 1199 0
1197 -1198 1199 0
1197 1198 -1199 0
-1197 -1198 -1199 0
-458 468 471 0
458 -468 471 0
458 468 -471 0
-458 -468 -471 0
-701 711 714 0
701 -711 714 0
701 711 -714 0
-701 -711 -714 0
-944 954 957 0
944 -954 957 0
944 954 -957 0
-944 -954 -957 0
-1187 1197 1200 0
1187 -1197 1200 0
1187 1197 -1200 0
-1187 -1197 -1200 0
-465 472 473 0
465 -472 473 0
465 472 -473 0
-465 -472 -473 0
-708 715 716 0
708 -715 716 0
708 715 -716 0
-708 -715 -716 0
-951 958 959 0
951 -958 959 0
951 958 -959 0
-951 -958 -959 0
-1194 1201 1202 0
1194 -1201 1202 0
1194 1201 -1202 0
-1194 -1201 -1202 0
-472 474 475 0
472 -474 475 0
472 474 -475 0
-472 -474 -475 0
-715 717 718 0
715 -717 718 0
715 717 -718 0
-715 -717 -718 0
-958 960 961 0
958 -960 961 0
958 960 -961 0
-958 -960 -961 0
-1201 1203 1204 0
1201 -1203 1204 0
1201 1203 -1204 0
-1201 -1203 -1204 0
-469 476 477 0
469 -476 477 0
469 476 -477 0
-469 -476 -477 0
-712 719 720 0
712 -719 720 0
712 719 -720 0
-712 -719 -720 0
-955 962 963 0
955 -962 963 0
955 962 -963 0
-955 -962 -963 0
-1198 1205 1206 0
1198 -1205 1206 0
1198 1205 -1206 0
-1198 -1205 -1206 0
-471 478 479 0
471 -478 479 0
471 478 -479 0
-471 -478 -479 0
-714 721 722 0
714 -721 722 0
714 721 -722 0
-714 -721 -722 0
-957 964 965 0
957 -964 965 0
957 964 -965 0
-957 -964 -965 0
-1200 1207 1208 0
1200 -1207 1208 0
1200 1207 -1208 0
-1200 -1207 -1208 0
-473 476 480 0
473 -476 480 0
473 476 -480 0
-473 -476 -480 0
-716 719 723 0
716 -719 723 0
716 719 -723 0
-716 -719 -723 0
-959 962 966 0
959 -962 966 0
959 962 -966 0
-959 -962 -966 0
-1202 1205 1209 0
1202 -1205 1209 0
1202 1205 -1209 0
-1202 -1205 -1209 0
-474 477 478 0
474 -477 478 0
474 477 -478 0
-474 -477 -478 0
-717 720 721 0
717 -720 721 0
717 720 -721 0
-717 -720 -721 0
-960 963 964 0
960 -963 964 0
960 963 -964 0
-960 -963 -964 0
-1203 1206 1207 0
1203 -1206 1207 0
1203 1206 -1207 0
-1203 -1206 -1207 0
-479 480 481 0
479 -480 481 0
479 480 -481 0
-479 -480 -481 0
-722 723 724 0
722 -723 724 0
722 723 -724 0
-722 -723 -724 0
-965 966 967 0
965 -966 967 0
965 966 -967 0
-965 -966 -967 0
-1208 1209 1210 0
1208 -1209 1210 0
1208 1209 -1210 0
-1208 -1209 -1210 0
-462 475 482 0
462 -475 482 0
462 475 -482 0
-462 -475 -482 0
-705 718 725 0
705 -718 725 0
705 718 -725 0
-705 -718 -725 0
-948 961 968 0
948 -961 968 0
948 961 -968 0
-948 -961 -968 0
-1191 1204 1211 0
1191 -1204 1211 0
1191 1204 -1211 0
-1191 -1204 -1211 0
-400 443 483 0
400 -443 483 0
400 443 -483 0
-400 -443 -483 0
-643 686 726 0
643 -686 726 0
643 686 -726 0
-643 -686 -726 0
-886 929 969 0
886 -929 969 0
886 929 -969 0
-886 -929 -969 0
-1129 1172 1212 0
1129 -1172 1212 0
1129 1172 -1212 0
-1129 -1172 -1212 0
-408 470 483 0
408 -470 483 0
408 470 -483 0
-408 -470 -483 0
-651 713 726 0
651 -713 726 0
651 713 -726 0
-651 -713 -726 0
-894 956 969 0
894 -956 969 0
894 956 -969 0
-894 -956 -969 0
-1137 1199 1212 0
1137 -1199 1212 0
1137 1199 -1212 0
-1137 -1199 -1212 0
-372 454 484 0
372 -454 484 0
372 454 -484 0
-372 -454 -484 0
-615 697 727 0
615 -697 727 0
615 697 -727 0
-615 -697 -727 0
-858 940 970 0
858 -940 970 0
858 940 -970 0
-858 -940 -970 0
-1101 1183 1213 0
1101 -1183 1213 0
1101 1183 -1213 0
-1101 -1183 -1213 0
-380 484 485 0
380 -484 485 0
380 484 -485 0
-380 -484 -485 0
-623 727 728 0
623 -727 728 0
623 727 -728 0
-623 -727 -728 0
-866 970 971 0
866 -970 971 0
866 970 -971 0
-866 -970 -971 0
-1109 1213 1214 0
1109 -1213 1214 0
1109 1213 -1214 0
-1109 -1213 -1214 0
-440 467 486 0
440 -467 486 0
440 467 -486 0
-440 -467 -486 0
-683 710 729 0
683 -710 729 0
683 710 -729 0
-683 -710 -729 0
-926 953 972 0
926 -953 972 0
926 953 -972 0
-926 -953 -972 0
-1169 1196 1215 0
1169 -1196 1215 0
1169 1196 -1215 0
-1169 -1196 -1215 0
-481 485 486 0
481 -485 486 0
481 485 -486 0
-481 -485 -486 0
-724 728 729 0
724 -728 729 0
724 728 -729 0
-724 -728 -729 0
-967 971 972 0
967 -971 972 0
967 971 -972 0
-967 -971 -972 0
-1210 1214 1215 0
1210 -1214 1215 0
1210 1214 -1215 0
-1210 -1214 -1215 0
-427 455 482 0
427 -455 482 0
427 455 -482 0
-427 -455 -482 0
-670 698 725 0
670 -698 725 0
670 698 -725 0
-670 -698 -725 0
-913 941 968 0
913 -941 968 0
913 941 -968 0
-913 -941 -968 0
-1156 1184 1211 0
1156 -1184 1211 0
1156 1184 -1211 0
-1156 -1184 -1211 0
-1 1216 0
-2 1217 0
-1216 1217 0
-2 -1216 1218 0
-3 1219 0
-1217 1219 0
-1218 1220 0
-3 -1217 1220 0
-3 -1218 1221 0
-4 1222 0
-1219 1222 0
-1220 1223 0
-1221 1224 0
-4 -1219 1223 0
-4 -1220 1224 0
-4 -1221 1225 0
-5 1226 0
-1222 1226 0
-1223 1227 0
-1224 1228 0
-1225 1229 0
-5 -1222 1227 0
-5 -1223 1228 0
-5 -1224 1229 0
-5 -1225 0
-6 1230 0
-1226 1230 0
-1227 1231 0
-1228 1232 0
-1229 1233 0
-6 -1226 1231 0
-6 -1227 1232 0
-6 -1228 1233 0
-6 -1229 0
-7 1234 0
-1230 1234 0
-1231 1235 0
-1232 1236 0
-1233 1237 0
-7 -1230 1235 0
-7 -1231 1236 0
-7 -1232 1237 0
-7 -1233 0
-8 1238 0
-1234 1238 0
-1235 1239 0
-1236 1240 0
-1237 1241 0
-8 -1234 1239 0
-8 -1235 1240 0
-8 -1236 1241 0
-8 -1237 0
-9 1242 0
-1238 1242 0
-1239 1243 0
-1240 1244 0
-1241 1245 0
-9 -1238 1243 0
-9 -1239 1244 0
-9 -1240 1245 0
-9 -1241 0
-10 1246 0
-1242 1246 0
-1243 1247 0
-1244 1248 0
-1245 1249 0
-10 -1242 1247 0
-10 -1243 1248 0
-10 -1244 1249 0
-10 -1245 0
-11 1250 0
-1246 1250 0
-1247 1251 0
-1248 1252 0
-1249 1253 0
-11 -1246 1251 0
-11 -1247 1252 0
-11 -1248 1253 0
-11 -1249 0
-12 1254 0
-1250 1254 0
-1251 1255 0
-1252 1256 0
-1253 1257 0
-12 -1250 1255 0
-12 -1251 1256 0
-12 -1252 1257 0
-12 -1253 0
-13 1258 0
-1254 1258 0
-1255 1259 0
-1256 1260 0
-1257 1261 0
-13 -1254 1259 0
-13 -1255 1260 0
-13 -1256 1261 0
-13 -1257 0
-14 1262 0
-1258 1262 0
-1259 1263 0
-1260 1264 0
-1261 1265 0
-14 -1258 1263 0
-14 -1259 1264 0
-14 -1260 1265 0
-14 -1261 0
-15 1266 0
-1262 1266 0
-1263 1267 0
-1264 1268 0
-1265 1269 0
-15 -1262 1267 0
-15 -1263 1268 0
-15 -1264 1269 0
-15 -1265 0
-16 1270 0
-1266 1270 0
-1267 1271 0
-1268 1272 0
-1269 1273 0
-16 -1266 1271 0
-16 -1267 1272 0
-16 -1268 1273 0
-16 -1269 0
-17 1274 0
-1270 1274 0
-1271 1275 0
-1272 1276 0
-1273 1277 0
-17 -1270 1275 0
-17 -1271 1276 0
-17 -1272 1277 0
-17 -1273 0
-18 1278 0
-1274 1278 0
-1275 1279 0
-1276 1280 0
-1277 1281 0
-18 -1274 1279 0
-18 -1275 1280 0
-18 -1276 1281 0
-18 -1277 0
-19 1282 0
-1278 1282 0
-1279 1283 0
-1280 1284 0
-1281 1285 0
-19 -1278 1283 0
-19 -1279 1284 0
-19 -1280 1285 0
-19 -1281 0
-20 1286 0
-1282 1286 0
-1283 1287 0
-1284 1288 0
-1285 1289 0
-20 -1282 1287 0
-20 -1283 1288 0
-20 -1284 1289 0
-20 -1285 0
-21 1290 0
-1286 1290 0
-1287 1291 0
-1288 1292 0
-1289 1293 0
-21 -1286 1291 0
-21 -1287 1292 0
-21 -1288 1293 0
-21 -1289 0
-22 1294 0
-1290 1294 0
-1291 1295 0
-1292 1296 0
-1293 1297 0
-22 -1290 1295 0
-22 -1291 1296 0
-22 -1292 1297 0
-22 -1293 0
-23 1298 0
-1294 1298 0
-1295 1299 0
-1296 1300 0
-1297 1301 0
-23 -1294 1299 0
-23 -1295 1300 0
-23 -1296 1301 0
-23 -1297 0
-24 1302 0
-1298 1302 0
-1299 1303 0
-1300 1304 0
-1301 1305 0
-24 -1298 1303 0
-24 -1299 1304 0
-24 -1300 1305 0
-24 -1301 0
-25 1306 0
-1302 1306 0
-1303 1307 0
-1304 1308 0
-1305 1309 0
-25 -1302 1307 0
-25 -1303 1308 0
-25 -1304 1309 0
-25 -1305 0
-26 1310 0
-1306 1310 0
-1307 1311 0
-1308 1312 0
-1309 1313 0
-26 -1306 1311 0
-26 -1307 1312 0
-26 -1308 1313 0
-26 -1309 0
-27 1314 0
-1310 1314 0
-1311 1315 0
-1312 1316 0
-1313 1317 0
-27 -1310 1315 0
-27 -1311 1316 0
-27 -1312 1317 0
-27 -1313 0
-28 1318 0
-1314 1318 0
-1315 1319 0
-1316 1320 0
-1317 1321 0
-28 -1314 1319 0
-28 -1315 1320 0
-28 -1316 1321 0
-28 -1317 0
-29 1322 0
-1318 1322 0
-1319 1323 0
-1320 1324 0
-1321 1325 0
-29 -1318 1323 0
-29 -1319 1324 0
-29 -1320 1325 0
-29 -1321 0
-30 1326 0
-1322 1326 0
-1323 1327 0
-1324 1328 0
-1325 1329 0
-30 -1322 1327 0
-30 -1323 1328 0
-30 -1324 1329 0
-30 -1325 0
-31 1330 0
-1326 1330 0
-1327 1331 0
-1328 1332 0
-1329 1333 0
-31 -1326 1331 0
-31 -1327 1332 0
-31 -1328 1333 0
-31 -1329 0
-32 1334 0
-1330 1334 0
-1331 1335 0
-1332 1336 0
-1333 1337 0
-32 -1330 1335 0
-32 -1331 1336 0
-32 -1332 1337 0
-32 -1333 0
-33 1338 0
-1334 1338 0
-1335 1339 0
-1336 1340 0
-1337 1341 0
-33 -1334 1339 0
-33 -1335 1340 0
-33 -1336 1341 0
-33 -1337 0
-34 1342 0
-1338 1342 0
-1339 1343 0
-1340 1344 0
-1341 1345 0
-34 -1338 1343 0
-34 -1339 1344 0
-34 -1340 1345 0
-34 -1341 0
-35 1346 0
-1342 1346 0
-1343 1347 0
-1344 1348 0
-1345 1349 0
-35 -1342 1347 0
-35 -1343 1348 0
-35 -1344 1349 0
-35 -1345 0
-36 1350 0
-1346 1350 0
-1347 1351 0
-1348 1352 0
-1349 1353 0
-36 -1346 1351 0
-36 -1347 1352 0
-36 -1348 1353 0
-36 -1349 0
-37 1354 0
-1350 1354 0
-1351 1355 0
-1352 1356 0
-1353 1357 0
-37 -1350 1355 0
-37 -1351 1356 0
-37 -1352 1357 0
-37 -1353 0
-38 1358 0
-1354 1358 0
-1355 1359 0
-1356 1360 0
-1357 1361 0
-38 -1354 1359 0
-38 -1355 1360 0
-38 -1356 1361 0
-38 -1357 0
-39 1362 0
-1358 1362 0
-1359 1363 0
-1360 1364 0
-1361 1365 0
-39 -1358 1363 0
-39 -1359 1364 0
-39 -1360 1365 0
-39 -1361 0
-40 1366 0
-1362 1366 0
-1363 1367 0
-1364 1368 0
-1365 1369 0
-40 -1362 1367 0
-40 -1363 1368 0
-40 -1364 1369 0
-40 -1365 0
-41 1370 0
-1366 1370 0
-1367 1371 0
-1368 1372 0
-1369 1373 0
-41 -1366 1371 0
-41 -1367 1372 0
-41 -1368 1373 0
-41 -1369 0
-42 1374 0
-1370 1374 0
-1371 1375 0
-1372 1376 0
-1373 1377 0
-42 -1370 1375 0
-42 -1371 1376 0
-42 -1372 1377 0
-42 -1373 0
-43 1378 0
-1374 1378 0
-1375 1379 0
-1376 1380 0
-1377 1381 0
-43 -1374 1379 0
-43 -1375 1380 0
-43 -1376 1381 0
-43 -1377 0
-44 1382 0
-1378 1382 0
-1379 1383 0
-1380 1384 0
-1381 1385 0
-44 -1378 1383 0
-44 -1379 1384 0
-44 -1380 1385 0
-44 -1381 0
-45 1386 0
-1382 1386 0
-1383 1387 0
-1384 1388 0
-1385 1389 0
-45 -1382 1387 0
-45 -1383 1388 0
-45 -1384 1389 0
-45 -1385 0
-46 1390 0
-1386 1390 0
-1387 1391 0
-1388 1392 0
-1389 1393 0
-46 -1386 1391 0
-46 -1387 1392 0
-46 -1388 1393 0
-46 -1389 0
-47 1394 0
-1390 1394 0
-1391 1395 0
-1392 1396 0
-1393 1397 0
-47 -1390 1395 0
-47 -1391 1396 0
-47 -1392 1397 0
-47 -1393 0
-48 1398 0
-1394 1398 0
-1395 1399 0
-1396 1400 0
-1397 1401 0
-48 -1394 1399 0
-48 -1395 1400 0
-48 -1396 1401 0
-48 -1397 0
-49 1402 0
-1398 1402 0
-1399 1403 0
-1400 1404 0
-1401 1405 0
-49 -1398 1403 0
-49 -1399 1404 0
-49 -1400 1405 0
-49 -1401 0
-50 1406 0
-1402 1406 0
-1403 1407 0
-1404 1408 0
-1405 1409 0
-50 -1402 1407 0
-50 -1403 1408 0
-50 -1404 1409 0
-50 -1405 0
-51 1410 0
-1406 1410 0
-1407 1411 0
-1408 1412 0
-1409 1413 0
-51 -1406 1411 0
-51 -1407 1412 0
-51 -1408 1413 0
-51 -1409 0
-52 1414 0
-1410 1414 0
-1411 1415 0
-1412 1416 0
-1413 1417 0
-52 -1410 1415 0
-52 -1411 1416 0
-52 -1412 1417 0
-52 -1413 0
-53 1418 0
-1414 1418 0
-1415 1419 0
-1416 1420 0
-1417 1421 0
-53 -1414 1419 0
-53 -1415 1420 0
-53 -1416 1421 0
-53 -1417 0
-54 1422 0
-1418 1422 0
-1419 1423 0
-1420 1424 0
-1421 1425 0
-54 -1418 1423 0
-54 -1419 1424 0
-54 -1420 1425 0
-54 -1421 0
-55 1426 0
-1422 1426 0
-1423 1427 0
-1424 1428 0
-1425 1429 0
-55 -1422 1427 0
-55 -1423 1428 0
-55 -1424 1429 0
-55 -1425 0
-56 1430 0
-1426 1430 0
-1427 1431 0
-1428 1432 0
-1429 1433 0
-56 -1426 1431 0
-56 -1427 1432 0
-56 -1428 1433 0
-56 -1429 0
-57 1434 0
-1430 1434 0
-1431 1435 0
-1432 1436 0
-1433 1437 0
-57 -1430 1435 0
-57 -1431 1436 0
-57 -1432 1437 0
-57 -1433 0
-58 1438 0
-1434 1438 0
-1435 1439 0
-1436 1440 0
-1437 1441 0
-58 -1434 1439 0
-58 -1435 1440 0
-58 -1436 1441 0
-58 -1437 0
-59 1442 0
-1438 1442 0
-1439 1443 0
-1440 1444 0
-1441 1445 0
-59 -1438 1443 0
-59 -1439 1444 0
-59 -1440 1445 0
-59 -1441 0
-60 1446 0
-1442 1446 0
-1443 1447 0
-1444 1448 0
-1445 1449 0
-60 -1442 1447 0
-60 -1443 1448 0
-60 -1444 1449 0
-60 -1445 0
-61 1450 0
-1446 1450 0
-1447 1451 0
-1448 1452 0
-1449 1453 0
-61 -1446 1451 0
-61 -1447 1452 0
-61 -1448 1453 0
-61 -1449 0
-62 1454 0
-1450 1454 0
-1451 1455 0
-1452 1456 0
-1453 1457 0
-62 -1450 1455 0
-62 -1451 1456 0
-62 -1452 1457 0
-62 -1453 0
-63 1458 0
-1454 1458 0
-1455 1459 0
-1456 1460 0
-1457 1461 0
-63 -1454 1459 0
-63 -1455 1460 0
-63 -1456 1461 0
-63 -1457 0
-64 1462 0
-1458 1462 0
-1459 1463 0
-1460 1464 0
-1461 1465 0
-64 -1458 1463 0
-64 -1459 1464 0
-64 -1460 1465 0
-64 -1461 0
-65 1466 0
-1462 1466 0
-1463 1467 0
-1464 1468 0
-1465 1469 0
-65 -1462 1467 0
-65 -1463 1468 0
-65 -1464 1469 0
-65 -1465 0
-66 1470 0
-1466 1470 0
-1467 1471 0
-1468 1472 0
-1469 1473 0
-66 -1466 1471 0
-66 -1467 1472 0
-66 -1468 1473 0
-66 -1469 0
-67 1474 0
-1470 1474 0
-1471 1475 0
-1472 1476 0
-1473 1477 0
-67 -1470 1475 0
-67 -1471 1476 0
-67 -1472 1477 0
-67 -1473 0
-68 1478 0
-1474 1478 0
-1475 1479 0
-1476 1480 0
-1477 1481 0
-68 -1474 1479 0
-68 -1475 1480 0
-68 -1476 1481 0
-68 -1477 0
-69 1482 0
-1478 1482 0
-1479 1483 0
-1480 1484 0
-1481 1485 0
-69 -1478 1483 0
-69 -1479 1484 0
-69 -1480 1485 0
-69 -1481 0
-70 1486 0
-1482 1486 0
-1483 1487 0
-1484 1488 0
-1485 1489 0
-70 -1482 1487 0
-70 -1483 1488 0
-70 -1484 1489 0
-70 -1485 0
-71 1490 0
-1486 1490 0
-1487 1491 0
-1488 1492 0
-1489 1493 0
-71 -1486 1491 0
-71 -1487 1492 0
-71 -1488 1493 0
-71 -1489 0
-72 1494 0
-1490 1494 0
-1491 1495 0
-1492 1496 0
-1493 1497 0
-72 -1490 1495 0
-72 -1491 1496 0
-72 -1492 1497 0
-72 -1493 0
-73 1498 0
-1494 1498 0
-1495 1499 0
-1496 1500 0
-1497 1501 0
-73 -1494 1499 0
-73 -1495 1500 0
-73 -1496 1501 0
-73 -1497 0
-74 1502 0
-1498 1502 0
-1499 1503 0
-1500 1504 0
-1501 1505 0
-74 -1498 1503 0
-74 -1499 1504 0
-74 -1500 1505 0
-74 -1501 0
-75 1506 0
-1502 1506 0
-1503 1507 0
-1504 1508 0
-1505 1509 0
-75 -1502 1507 0
-75 -1503 1508 0
-75 -1504 1509 0
-75 -1505 0
-76 1510 0
-1506 1510 0
-1507 1511 0
-1508 1512 0
-1509 1513 0
-76 -1506 1511 0
-76 -1507 1512 0
-76 -1508 1513 0
-76 -1509 0
-77 1514 0
-1510 1514 0
-1511 1515 0
-1512 1516 0
-1513 1517 0
-77 -1510 1515 0
-77 -1511 1516 0
-77 -1512 1517 0
-77 -1513 0
-78 1518 0
-1514 1518 0
-1515 1519 0
-1516 1520 0
-1517 1521 0
-78 -1514 1519 0
-78 -1515 1520 0
-78 -1516 1521 0
-78 -1517 0
-79 1522 0
-1518 1522 0
-1519 1523 0
-1520 1524 0
-1521 1525 0
-79 -1518 1523 0
-79 -1519 1524 0
-79 -1520 1525 0
-79 -1521 0
-80 1526 0
-1522 1526 0
-1523 1527 0
-1524 1528 0
-1525 1529 0
-80 -1522 1527 0
-80 -1523 1528 0
-80 -1524 1529 0
-80 -1525 0
-81 1530 0
-1526 1530 0
-1527 1531 0
-1528 1532 0
-1529 1533 0
-81 -1526 1531 0
-81 -1527 1532 0
-81 -1528 1533 0
-81 -1529 0
-82 1534 0
-1530 1534 0
-1531 1535 0
-1532 1536 0
-1533 1537 0
-82 -1530 1535 0
-82 -1531 1536 0
-82 -1532 1537 0
-82 -1533 0
-83 1538 0
-1534 1538 0
-1535 1539 0
-1536 1540 0
-1537 1541 0
-83 -1534 1539 0
-83 -1535 1540 0
-83 -1536 1541 0
-83 -1537 0
-84 1542 0
-1538 1542 0
-1539 1543 0
-1540 1544 0
-1541 1545 0
-84 -1538 1543 0
-84 -1539 1544 0
-84 -1540 1545 0
-84 -1541 0
-85 1546 0
-1542 1546 0
-1543 1547 0
-1544 1548 0
-1545 1549 0
-85 -1542 1547 0
-85 -1543 1548 0
-85 -1544 1549 0
-85 -1545 0
-86 1550 0
-1546 1550 0
-1547 1551 0
-1548 1552 0
-1549 1553 0
-86 -1546 1551 0
-86 -1547 1552 0
-86 -1548 1553 0
-86 -1549 0
-87 1554 0
-1550 1554 0
-1551 1555 0
-1552 1556 0
-1553 1557 0
-87 -1550 1555 0
-87 -1551 1556 0
-87 -1552 1557 0
-87 -1553 0
-88 1558 0
-1554 1558 0
-1555 1559 0
-1556 1560 0
-1557 1561 0
-88 -1554 1559 0
-88 -1555 1560 0
-88 -1556 1561 0
-88 -1557 0
-89 1562 0
-1558 1562 0
-1559 1563 0
-1560 1564 0
-1561 1565 0
-89 -1558 1563 0
-89 -1559 1564 0
-89 -1560 1565 0
-89 -1561 0
-90 1566 0
-1562 1566 0
-1563 1567 0
-1564 1568 0
-1565 1569 0
-90 -1562 1567 0
-90 -1563 1568 0
-90 -1564 1569 0
-90 -1565 0
-91 1570 0
-1566 1570 0
-1567 1571 0
-1568 1572 0
-1569 1573 0
-91 -1566 1571 0
-91 -1567 1572 0
-91 -1568 1573 0
-91 -1569 0
-92 1574 0
-1570 1574 0
-1571 1575 0
-1572 1576 0
-1573 1577 0
-92 -1570 1575 0
-92 -1571 1576 0
-92 -1572 1577 0
-92 -1573 0
-93 1578 0
-1574 1578 0
-1575 1579 0
-1576 1580 0
-1577 1581 0
-93 -1574 1579 0
-93 -1575 1580 0
-93 -1576 1581 0
-93 -1577 0
-94 1582 0
-1578 1582 0
-1579 1583 0
-1580 1584 0
-1581 1585 0
-94 -1578 1583 0
-94 -1579 1584 0
-94 -1580 1585 0
-94 -1581 0
-95 1586 0
-1582 1586 0
-1583 1587 0
-1584 1588 0
-1585 1589 0
-95 -1582 1587 0
-95 -1583 1588 0
-95 -1584 1589 0
-95 -1585 0
-96 1590 0
-1586 1590 0
-1587 1591 0
-1588 1592 0
-1589 1593 0
-96 -1586 1591 0
-96 -1587 1592 0
-96 -1588 1593 0
-96 -1589 0
-97 1594 0
-1590 1594 0
-1591 1595 0
-1592 1596 0
-1593 1597 0
-97 -1590 1595 0
-97 -1591 1596 0
-97 -1592 1597 0
-97 -1593 0
-98 1598 0
-1594 1598 0
-1595 1599 0
-1596 1600 0
-1597 1601 0
-98 -1594 1599 0
-98 -1595 1600 0
-98 -1596 1601 0
-98 -1597 0
-99 1602 0
-1598 1602 0
-1599 1603 0
-1600 1604 0
-1601 1605 0
-99 -1598 1603 0
-99 -1599 1604 0
-99 -1600 1605 0
-99 -1601 0
-100 1606 0
-1602 1606 0
-1603 1607 0
-1604 1608 0
-1605 1609 0
-100 -1602 1607 0
-100 -1603 1608 0
-100 -1604 1609 0
-100 -1605 0
-101 1610 0
-1606 1610 0
-1607 1611 0
-1608 1612 0
-1609 1613 0
-101 -1606 1611 0
-101 -1607 1612 0
-101 -1608 1613 0
-101 -1609 0
-102 1614 0
-1610 1614 0
-1611 1615 0
-1612 1616 0
-1613 1617 0
-102 -1610 1615 0
-102 -1611 1616 0
-102 -1612 1617 0
-102 -1613 0
-103 1618 0
-1614 1618 0
-1615 1619 0
-1616 1620 0
-1617 1621 0
-103 -1614 1619 0
-103 -1615 1620 0
-103 -1616 1621 0
-103 -1617 0
-104 1622 0
-1618 1622 0
-1619 1623 0
-1620 1624 0
-1621 1625 0
-104 -1618 1623 0
-104 -1619 1624 0
-104 -1620 1625 0
-104 -1621 0
-105 1626 0
-1622 1626 0
-1623 1627 0
-1624 1628 0
-1625 1629 0
-105 -1622 1627 0
-105 -1623 1628 0
-105 -1624 1629 0
-105 -1625 0
-106 1630 0
-1626 1630 0
-1627 1631 0
-1628 1632 0
-1629 1633 0
-106 -1626 1631 0
-106 -1627 1632 0
-106 -1628 1633 0
-106 -1629 0
-107 1634 0
-1630 1634 0
-1631 1635 0
-1632 1636 0
-1633 1637 0
-107 -1630 1635 0
-107 -1631 1636 0
-107 -1632 1637 0
-107 -1633 0
-108 1638 0
-1634 1638 0
-1635 1639 0
-1636 1640 0
-1637 1641 0
-108 -1634 1639 0
-108 -1635 1640 0
-108 -1636 1641 0
-108 -1637 0
-109 1642 0
-1638 1642 0
-1639 1643 0
-1640 1644 0
-1641 1645 0
-109 -1638 1643 0
-109 -1639 1644 0
-109 -1640 1645 0
-109 -1641 0
-110 1646 0
-1642 1646 0
-1643 1647 0
-1644 1648 0
-1645 1649 0
-110 -1642 1647 0
-110 -1643 1648 0
-110 -1644 1649 0
-110 -1645 0
-111 1650 0
-1646 1650 0
-1647 1651 0
-1648 1652 0
-1649 1653 0
-111 -1646 1651 0
-111 -1647 1652 0
-111 -1648 1653 0
-111 -1649 0
-112 1654 0
-1650 1654 0
-1651 1655 0
-1652 1656 0
-1653 1657 0
-112 -1650 1655 0
-112 -1651 1656 0
-112 -1652 1657 0
-112 -1653 0
-113 1658 0
-1654 1658 0
-1655 1659 0
-1656 1660 0
-1657 1661 0
-113 -1654 1659 0
-113 -1655 1660 0
-113 -1656 1661 0
-113 -1657 0
-114 1662 0
-1658 1662 0
-1659 1663 0
-1660 1664 0
-1661 1665 0
-114 -1658 1663 0
-114 -1659 1664 0
-114 -1660 1665 0
-114 -1661 0
-115 1666 0
-1662 1666 0
-1663 1667 0
-1664 1668 0
-1665 1669 0
-115 -1662 1667 0
-115 -1663 1668 0
-115 -1664 1669 0
-115 -1665 0
-116 1670 0
-1666 1670 0
-1667 1671 0
-1668 1672 0
-1669 1673 0
-116 -1666 1671 0
-116 -1667 1672 0
-116 -1668 1673 0
-116 -1669 0
-117 1674 0
-1670 1674 0
-1671 1675 0
-1672 1676 0
-1673 1677 0
-117 -1670 1675 0
-117 -1671 1676 0
-117 -1672 1677 0
-117 -1673 0
-118 1678 0
-1674 1678 0
-1675 1679 0
-1676 1680 0
-1677 1681 0
-118 -1674 1679 0
-118 -1675 1680 0
-118 -1676 1681 0
-118 -1677 0
-119 1682 0
-1678 1682 0
-1679 1683 0
-1680 1684 0
-1681 1685 0
-119 -1678 1683 0
-119 -1679 1684 0
-119 -1680 1685 0
-119 -1681 0
-120 1686 0
-1682 1686 0
-1683 1687 0
-1684 1688 0
-1685 1689 0
-120 -1682 1687 0
-120 -1683 1688 0
-120 -1684 1689 0
-120 -1685 0
-121 1690 0
-1686 1690 0
-1687 1691 0
-1688 1692 0
-1689 1693 0
-121 -1686 1691 0
-121 -1687 1692 0
-121 -1688 1693 0
-121 -1689 0
-122 1694 0
-1690 1694 0
-1691 1695 0
-1692 1696 0
-1693 1697 0
-122 -1690 1695 0
-122 -1691 1696 0
-122 -1692 1697 0
-122 -1693 0
-123 1698 0
-1694 1698 0
-1695 1699 0
-1696 1700 0
-1697 1701 0
-123 -1694 1699 0
-123 -1695 1700 0
-123 -1696 1701 0
-123 -1697 0
-124 1702 0
-1698 1702 0
-1699 1703 0
-1700 1704 0
-1701 1705 0
-124 -1698 1703 0
-124 -1699 1704 0
-124 -1700 1705 0
-124 -1701 0
-125 1706 0
-1702 1706 0
-1703 1707 0
-1704 1708 0
-1705 1709 0
-125 -1702 1707 0
-125 -1703 1708 0
-125 -1704 1709 0
-125 -1705 0
-126 1710 0
-1706 1710 0
-1707 1711 0
-1708 1712 0
-1709 1713 0
-126 -1706 1711 0
-126 -1707 1712 0
-126 -1708 1713 0
-126 -1709 0
-127 1714 0
-1710 1714 0
-1711 1715 0
-1712 1716 0
-1713 1717 0
-127 -1710 1715 0
-127 -1711 1716 0
-127 -1712 1717 0
-127 -1713 0
-128 1718 0
-1714 1718 0
-1715 1719 0
-1716 1720 0
-1717 1721 0
-128 -1714 1719 0
-128 -1715 1720 0
-128 -1716 1721 0
-128 -1717 0
-129 1722 0
-1718 1722 0
-1719 1723 0
-1720 1724 0
-1721 1725 0
-129 -1718 1723 0
-129 -1719 1724 0
-129 -1720 1725 0
-129 -1721 0
-130 1726 0
-1722 1726 0
-1723 1727 0
-1724 1728 0
-1725 1729 0
-130 -1722 1727 0
-130 -1723 1728 0
-130 -1724 1729 0
-130 -1725 0
-131 1730 0
-1726 1730 0
-1727 1731 0
-1728 1732 0
-1729 1733 0
-131 -1726 1731 0
-131 -1727 1732 0
-131 -1728 1733 0
-131 -1729 0
-132 1734 0
-1730 1734 0
-1731 1735 0
-1732 1736 0
-1733 1737 0
-132 -1730 1735 0
-132 -1731 1736 0
-132 -1732 1737 0
-132 -1733 0
-133 1738 0
-1734 1738 0
-1735 1739 0
-1736 1740 0
-1737 1741 0
-133 -1734 1739 0
-133 -1735 1740 0
-133 -1736 1741 0
-133 -1737 0
-134 1742 0
-1738 1742 0
-1739 1743 0
-1740 1744 0
-1741 1745 0
-134 -1738 1743 0
-134 -1739 1744 0
-134 -1740 1745 0
-134 -1741 0
-135 1746 0
-1742 1746 0
-1743 1747 0
-1744 1748 0
-1745 1749 0
-135 -1742 1747 0
-135 -1743 1748 0
-135 -1744 1749 0
-135 -1745 0
-136 1750 0
-1746 1750 0
-1747 1751 0
-1748 1752 0
-1749 1753 0
-136 -1746 1751 0
-136 -1747 1752 0
-136 -1748 1753 0
-136 -1749 0
-137 1754 0
-1750 1754 0
-1751 1755 0
-1752 1756 0
-1753 1757 0
-137 -1750 1755 0
-137 -1751 1756 0
-137 -1752 1757 0
-137 -1753 0
-138 1758 0
-1754 1758 0
-1755 1759 0
-1756 1760 0
-1757 1761 0
-138 -1754 1759 0
-138 -1755 1760 0
-138 -1756 1761 0
-138 -1757 0
-139 1762 0
-1758 1762 0
-1759 1763 0
-1760 1764 0
-1761 1765 0
-139 -1758 1763 0
-139 -1759 1764 0
-139 -1760 1765 0
-139 -1761 0
-140 1766 0
-1762 1766 0
-1763 1767 0
-1764 1768 0
-1765 1769 0
-140 -1762 1767 0
-140 -1763 1768 0
-140 -1764 1769 0
-140 -1765 0
-141 1770 0
-1766 1770 0
-1767 1771 0
-1768 1772 0
-1769 1773 0
-141 -1766 1771 0
-141 -1767 1772 0
-141 -1768 1773 0
-141 -1769 0
-142 1774 0
-1770 1774 0
-1771 1775 0
-1772 1776 0
-1773 1777 0
-142 -1770 1775 0
-142 -1771 1776 0
-142 -1772 1777 0
-142 -1773 0
-143 1778 0
-1774 1778 0
-1775 1779 0
-1776 1780 0
-1777 1781 0
-143 -1774 1779 0
-143 -1775 1780 0
-143 -1776 1781 0
-143 -1777 0
-144 1782 0
-1778 1782 0
-1779 1783 0
-1780 1784 0
-1781 1785 0
-144 -1778 1783 0
-144 -1779 1784 0
-144 -1780 1785 0
-144 -1781 0
-145 1786 0
-1782 1786 0
-1783 1787 0
-1784 1788 0
-1785 1789 0
-145 -1782 1787 0
-145 -1783 1788 0
-145 -1784 1789 0
-145 -1785 0
-146 1790 0
-1786 1790 0
-1787 1791 0
-1788 1792 0
-1789 1793 0
-146 -1786 1791 0
-146 -1787 1792 0
-146 -1788 1793 0
-146 -1789 0
-147 1794 0
-1790 1794 0
-1791 1795 0
-1792 1796 0
-1793 1797 0
-147 -1790 1795 0
-147 -1791 1796 0
-147 -1792 1797 0
-147 -1793 0
-148 1798 0
-1794 1798 0
-1795 1799 0
-1796 1800 0
-1797 1801 0
-148 -1794 1799 0
-148 -1795 1800 0
-148 -1796 1801 0
-148 -1797 0
-149 1802 0
-1798 1802 0
-1799 1803 0
-1800 1804 0
-1801 1805 0
-149 -1798 1803 0
-149 -1799 1804 0
-149 -1800 1805 0
-149 -1801 0
-150 1806 0
-1802 1806 0
-1803 1807 0
-1804 1808 0
-1805 1809 0
-150 -1802 1807 0
-150 -1803 1808 0
-150 -1804 1809 0
-150 -1805 0
-151 1810 0
-1806 1810 0
-1807 1811 0
-1808 1812 0
-1809 1813 0
-151 -1806 1811 0
-151 -1807 1812 0
-151 -1808 1813 0
-151 -1809 0
-152 1814 0
-1810 1814 0
-1811 1815 0
-1812 1816 0
-1813 1817 0
-152 -1810 1815 0
-152 -1811 1816 0
-152 -1812 1817 0
-152 -1813 0
-153 1818 0
-1814 1818 0
-1815 1819 0
-1816 1820 0
-1817 1821 0
-153 -1814 1819 0
-153 -1815 1820 0
-153 -1816 1821 0
-153 -1817 0
-154 1822 0
-1818 1822 0
-1819 1823 0
-1820 1824 0
-1821 1825 0
-154 -1818 1823 0
-154 -1819 1824 0
-154 -1820 1825 0
-154 -1821 0
-155 1826 0
-1822 1826 0
-1823 1827 0
-1824 1828 0
-1825 1829 0
-155 -1822 1827 0
-155 -1823 1828 0
-155 -1824 1829 0
-155 -1825 0
-156 1830 0
-1826 1830 0
-1827 1831 0
-1828 1832 0
-1829 1833 0
-156 -1826 1831 0
-156 -1827 1832 0
-156 -1828 1833 0
-156 -1829 0
-157 1834 0
-1830 1834 0
-1831 1835 0
-1832 1836 0
-1833 1837 0
-157 -1830 1835 0
-157 -1831 1836 0
-157 -1832 1837 0
-157 -1833 0
-158 1838 0
-1834 1838 0
-1835 1839 0
-1836 1840 0
-1837 1841 0
-158 -1834 1839 0
-158 -1835 1840 0
-158 -1836 1841 0
-158 -1837 0
-159 1842 0
-1838 1842 0
-1839 1843 0
-1840 1844 0
-1841 1845 0
-159 -1838 1843 0
-159 -1839 1844 0
-159 -1840 1845 0
-159 -1841 0
-160 1846 0
-1842 1846 0
-1843 1847 0
-1844 1848 0
-1845 1849 0
-160 -1842 1847 0
-160 -1843 1848 0
-160 -1844 1849 0
-160 -1845 0
-161 1850 0
-1846 1850 0
-1847 1851 0
-1848 1852 0
-1849 1853 0
-161 -1846 1851 0
-161 -1847 1852 0
-161 -1848 1853 0
-161 -1849 0
-162 1854 0
-1850 1854 0
-1851 1855 0
-1852 1856 0
-1853 1857 0
-162 -1850 1855 0
-162 -1851 1856 0
-162 -1852 1857 0
-162 -1853 0
-163 1858 0
-1854 1858 0
-1855 1859 0
-1856 1860 0
-1857 1861 0
-163 -1854 1859 0
-163 -1855 1860 0
-163 -1856 1861 0
-163 -1857 0
-164 1862 0
-1858 1862 0
-1859 1863 0
-1860 1864 0
-1861 1865 0
-164 -1858 1863 0
-164 -1859 1864 0
-164 -1860 1865 0
-164 -1861 0
-165 1866 0
-1862 1866 0
-1863 1867 0
-1864 1868 0
-1865 1869 0
-165 -1862 1867 0
-165 -1863 1868 0
-165 -1864 1869 0
-165 -1865 0
-166 1870 0
-1866 1870 0
-1867 1871 0
-1868 1872 0
-1869 1873 0
-166 -1866 1871 0
-166 -1867 1872 0
-166 -1868 1873 0
-166 -1869 0
-167 1874 0
-1870 1874 0
-1871 1875 0
-1872 1876 0
-1873 1877 0
-167 -1870 1875 0
-167 -1871 1876 0
-167 -1872 1877 0
-167 -1873 0
-168 1878 0
-1874 1878 0
-1875 1879 0
-1876 1880 0
-1877 1881 0
-168 -1874 1879 0
-168 -1875 1880 0
-168 -1876 1881 0
-168 -1877 0
-169 1882 0
-1878 1882 0
-1879 1883 0
-1880 1884 0
-1881 1885 0
-169 -1878 1883 0
-169 -1879 1884 0
-169 -1880 1885 0
-169 -1881 0
-170 1886 0
-1882 1886 0
-1883 1887 0
-1884 1888 0
-1885 1889 0
-170 -1882 1887 0
-170 -1883 1888 0
-170 -1884 1889 0
-170 -1885 0
-171 1890 0
-1886 1890 0
-1887 1891 0
-1888 1892 0
-1889 1893 0
-171 -1886 1891 0
-171 -1887 1892 0
-171 -1888 1893 0
-171 -1889 0
-172 1894 0
-1890 1894 0
-1891 1895 0
-1892 1896 0
-1893 1897 0
-172 -1890 1895 0
-172 -1891 1896 0
-172 -1892 1897 0
-172 -1893 0
-173 1898 0
-1894 1898 0
-1895 1899 0
-1896 1900 0
-1897 1901 0
-173 -1894 1899 0
-173 -1895 1900 0
-173 -1896 1901 0
-173 -1897 0
-174 1902 0
-1898 1902 0
-1899 1903 0
-1900 1904 0
-1901 1905 0
-174 -1898 1903 0
-174 -1899 1904 0
-174 -1900 1905 0
-174 -1901 0
-175 1906 0
-1902 1906 0
-1903 1907 0
-1904 1908 0
-1905 1909 0
-175 -1902 1907 0
-175 -1903 1908 0
-175 -1904 1909 0
-175 -1905 0
-176 1910 0
-1906 1910 0
-1907 1911 0
-1908 1912 0
-1909 1913 0
-176 -1906 1911 0
-176 -1907 1912 0
-176 -1908 1913 0
-176 -1909 0
-177 1914 0
-1910 1914 0
-1911 1915 0
-1912 1916 0
-1913 1917 0
-177 -1910 1915 0
-177 -1911 1916 0
-177 -1912 1917 0
-177 -1913 0
-178 1918 0
-1914 1918 0
-1915 1919 0
-1916 1920 0
-1917 1921 0
-178 -1914 1919 0
-178 -1915 1920 0
-178 -1916 1921 0
-178 -1917 0
-179 1922 0
-1918 1922 0
-1919 1923 0
-1920 1924 0
-1921 1925 0
-179 -1918 1923 0
-179 -1919 1924 0
-179 -1920 1925 0
-179 -1921 0
-180 1926 0
-1922 1926 0
-1923 1927 0
-1924 1928 0
-1925 1929 0
-180 -1922 1927 0
-180 -1923 1928 0
-180 -1924 1929 0
-180 -1925 0
-181 1930 0
-1926 1930 0
-1927 1931 0
-1928 1932 0
-1929 1933 0
-181 -1926 1931 0
-181 -1927 1932 0
-181 -1928 1933 0
-181 -1929 0
-182 1934 0
-1930 1934 0
-1931 1935 0
-1932 1936 0
-1933 1937 0
-182 -1930 1935 0
-182 -1931 1936 0
-182 -1932 1937 0
-182 -1933 0
-183 1938 0
-1934 1938 0
-1935 1939 0
-1936 1940 0
-1937 1941 0
-183 -1934 1939 0
-183 -1935 1940 0
-183 -1936 1941 0
-183 -1937 0
-184 1942 0
-1938 1942 0
-1939 1943 0
-1940 1944 0
-1941 1945 0
-184 -1938 1943 0
-184 -1939 1944 0
-184 -1940 1945 0
-184 -1941 0
-185 1946 0
-1942 1946 0
-1943 1947 0
-1944 1948 0
-1945 1949 0
-185 -1942 1947 0
-185 -1943 1948 0
-185 -1944 1949 0
-185 -1945 0
-186 1950 0
-1946 1950 0
-1947 1951 0
-1948 1952 0
-1949 1953 0
-186 -1946 1951 0
-186 -1947 1952 0
-186 -1948 1953 0
-186 -1949 0
-187 1954 0
-1950 1954 0
-1951 1955 0
-1952 1956 0
-1953 1957 0
-187 -1950 1955 0
-187 -1951 1956 0
-187 -1952 1957 0
-187 -1953 0
-188 1958 0
-1954 1958 0
-1955 1959 0
-1956 1960 0
-1957 1961 0
-188 -1954 1959 0
-188 -1955 1960 0
-188 -1956 1961 0
-188 -1957 0
-189 1962 0
-1958 1962 0
-1959 1963 0
-1960 1964 0
-1961 1965 0
-189 -1958 1963 0
-189 -1959 1964 0
-189 -1960 1965 0
-189 -1961 0
-190 1966 0
-1962 1966 0
-1963 1967 0
-1964 1968 0
-1965 1969 0
-190 -1962 1967 0
-190 -1963 1968 0
-190 -1964 1969 0
-190 -1965 0
-191 1970 0
-1966 1970 0
-1967 1971 0
-1968 1972 0
-1969 1973 0
-191 -1966 1971 0
-191 -1967 1972 0
-191 -1968 1973 0
-191 -1969 0
-192 1974 0
-1970 1974 0
-1971 1975 0
-1972 1976 0
-1973 1977 0
-192 -1970 1975 0
-192 -1971 1976 0
-192 -1972 1977 0
-192 -1973 0
-193 1978 0
-1974 1978 0
-1975 1979 0
-1976 1980 0
-1977 1981 0
-193 -1974 1979 0
-193 -1975 1980 0
-193 -1976 1981 0
-193 -1977 0
-194 1982 0
-1978 1982 0
-1979 1983 0
-1980 1984 0
-1981 1985 0
-194 -1978 1983 0
-194 -1979 1984 0
-194 -1980 1985 0
-194 -1981 0
-195 1986 0
-1982 1986 0
-1983 1987 0
-1984 1988 0
-1985 1989 0
-195 -1982 1987 0
-195 -1983 1988 0
-195 -1984 1989 0
-195 -1985 0
-196 1990 0
-1986 1990 0
-1987 1991 0
-1988 1992 0
-1989 1993 0
-196 -1986 1991 0
-196 -1987 1992 0
-196 -1988 1993 0
-196 -1989 0
-197 1994 0
-1990 1994 0
-1991 1995 0
-1992 1996 0
-1993 1997 0
-197 -1990 1995 0
-197 -1991 1996 0
-197 -1992 1997 0
-197 -1993 0
-198 1998 0
-1994 1998 0
-1995 1999 0
-1996 2000 0
-1997 2001 0
-198 -1994 1999 0
-198 -1995 2000 0
-198 -1996 2001 0
-198 -1997 0
-199 2002 0
-1998 2002 0
-1999 2003 0
-2000 2004 0
-2001 2005 0
-199 -1998 2003 0
-199 -1999 2004 0
-199 -2000 2005 0
-199 -2001 0
-200 2006 0
-2002 2006 0
-2003 2007 0
-2004 2008 0
-2005 2009 0
-200 -2002 2007 0
-200 -2003 2008 0
-200 -2004 2009 0
-200 -2005 0
-201 2010 0
-2006 2010 0
-2007 2011 0
-2008 2012 0
-2009 2013 0
-201 -2006 2011 0
-201 -2007 2012 0
-201 -2008 2013 0
-201 -2009 0
-202 2014 0
-2010 2014 0
-2011 2015 0
-2012 2016 0
-2013 2017 0
-202 -2010 2015 0
-202 -2011 2016 0
-202 -2012 2017 0
-202 -2013 0
-203 2018 0
-2014 2018 0
-2015 2019 0
-2016 2020 0
-2017 2021 0
-203 -2014 2019 0
-203 -2015 2020 0
-203 -2016 2021 0
-203 -2017 0
-204 2022 0
-2018 2022 0
-2019 2023 0
-2020 2024 0
-2021 2025 0
-204 -2018 2023 0
-204 -2019 2024 0
-204 -2020 2025 0
-204 -2021 0
-205 2026 0
-2022 2026 0
-2023 2027 0
-2024 2028 0
-2025 2029 0
-205 -2022 2027 0
-205 -2023 2028 0
-205 -2024 2029 0
-205 -2025 0
-206 2030 0
-2026 2030 0
-2027 2031 0
-2028 2032 0
-2029 2033 0
-206 -2026 2031 0
-206 -2027 2032 0
-206 -2028 2033 0
-206 -2029 0
-207 2034 0
-2030 2034 0
-2031 2035 0
-2032 2036 0
-2033 2037 0
-207 -2030 2035 0
-207 -2031 2036 0
-207 -2032 2037 0
-207 -2033 0
-208 2038 0
-2034 2038 0
-2035 2039 0
-2036 2040 0
-2037 2041 0
-208 -2034 2039 0
-208 -2035 2040 0
-208 -2036 2041 0
-208 -2037 0
-209 2042 0
-2038 2042 0
-2039 2043 0
-2040 2044 0
-2041 2045 0
-209 -2038 2043 0
-209 -2039 2044 0
-209 -2040 2045 0
-209 -2041 0
-210 2046 0
-2042 2046 0
-2043 2047 0
-2044 2048 0
-2045 2049 0
-210 -2042 2047 0
-210 -2043 2048 0
-210 -2044 2049 0
-210 -2045 0
-211 2050 0
-2046 2050 0
-2047 2051 0
-2048 2052 0
-2049 2053 0
-211 -2046 2051 0
-211 -2047 2052 0
-211 -2048 2053 0
-211 -2049 0
-212 2054 0
-2050 2054 0
-2051 2055 0
-2052 2056 0
-2053 2057 0
-212 -2050 2055 0
-212 -2051 2056 0
-212 -2052 2057 0
-212 -2053 0
-213 2058 0
-2054 2058 0
-2055 2059 0
-2056 2060 0
-2057 2061 0
-213 -2054 2059 0
-213 -2055 2060 0
-213 -2056 2061 0
-213 -2057 0
-214 2062 0
-2058 2062 0
-2059 2063 0
-2060 2064 0
-2061 2065 0
-214 -2058 2063 0
-214 -2059 2064 0
-214 -2060 2065 0
-214 -2061 0
-215 2066 0
-2062 2066 0
-2063 2067 0
-2064 2068 0
-2065 2069 0
-215 -2062 2067 0
-215 -2063 2068 0
-215 -2064 2069 0
-215 -2065 0
-216 2070 0
-2066 2070 0
-2067 2071 0
-2068 2072 0
-2069 2073 0
-216 -2066 2071 0
-216 -2067 2072 0
-216 -2068 2073 0
-216 -2069 0
-217 2074 0
-2070 2074 0
-2071 2075 0
-2072 2076 0
-2073 2077 0
-217 -2070 2075 0
-217 -2071 2076 0
-217 -2072 2077 0
-217 -2073 0
-218 2078 0
-2074 2078 0
-2075 2079 0
-2076 2080 0
-2077 2081 0
-218 -2074 2079 0
-218 -2075 2080 0
-218 -2076 2081 0
-218 -2077 0
-219 2082 0
-2078 2082 0
-2079 2083 0
-2080 2084 0
-2081 2085 0
-219 -2078 2083 0
-219 -2079 2084 0
-219 -2080 2085 0
-219 -2081 0
-220 2086 0
-2082 2086 0
-2083 2087 0
-2084 2088 0
-2085 2089 0
-220 -2082 2087 0
-220 -2083 2088 0
-220 -2084 2089 0
-220 -2085 0
-221 2090 0
-2086 2090 0
-2087 2091 0
-2088 2092 0
-2089 2093 0
-221 -2086 2091 0
-221 -2087 2092 0
-221 -2088 2093 0
-221 -2089 0
-222 2094 0
-2090 2094 0
-2091 2095 0
-2092 2096 0
-2093 2097 0
-222 -2090 2095 0
-222 -2091 2096 0
-222 -2092 2097 0
-222 -2093 0
-223 2098 0
-2094 2098 0
-2095 2099 0
-2096 2100 0
-2097 2101 0
-223 -2094 2099 0
-223 -2095 2100 0
-223 -2096 2101 0
-223 -2097 0
-224 2102 0
-2098 2102 0
-2099 2103 0
-2100 2104 0
-2101 2105 0
-224 -2098 2103 0
-224 -2099 2104 0
-224 -2100 2105 0
-224 -2101 0
-225 2106 0
-2102 2106 0
-2103 2107 0
-2104 2108 0
-2105 2109 0
-225 -2102 2107 0
-225 -2103 2108 0
-225 -2104 2109 0
-225 -2105 0
-226 2110 0
-2106 2110 0
-2107 2111 0
-2108 2112 0
-2109 2113 0
-226 -2106 2111 0
-226 -2107 2112 0
-226 -2108 2113 0
-226 -2109 0
-227 2114 0
-2110 2114 0
-2111 2115 0
-2112 2116 0
-2113 2117 0
-227 -2110 2115 0
-227 -2111 2116 0
-227 -2112 2117 0
-227 -2113 0
-228 2118 0
-2114 2118 0
-2115 2119 0
-2116 2120 0
-2117 2121 0
-228 -2114 2119 0
-228 -2115 2120 0
-228 -2116 2121 0
-228 -2117 0
-229 2122 0
-2118 2122 0
-2119 2123 0
-2120 2124 0
-2121 2125 0
-229 -2118 2123 0
-229 -2119 2124 0
-229 -2120 2125 0
-229 -2121 0
-230 2126 0
-2122 2126 0
-2123 2127 0
-2124 2128 0
-2125 2129 0
-230 -2122 2127 0
-230 -2123 2128 0
-230 -2124 2129 0
-230 -2125 0
-231 2130 0
-2126 2130 0
-2127 2131 0
-2128 2132 0
-2129 2133 0
-231 -2126 2131 0
-231 -2127 2132 0
-231 -2128 2133 0
-231 -2129 0
-232 2134 0
-2130 2134 0
-2131 2135 0
-2132 2136 0
-2133 2137 0
-232 -2130 2135 0
-232 -2131 2136 0
-232 -2132 2137 0
-232 -2133 0
-233 2138 0
-2134 2138 0
-2135 2139 0
-2136 2140 0
-2137 2141 0
-233 -2134 2139 0
-233 -2135 2140 0
-233 -2136 2141 0
-233 -2137 0
-234 2142 0
-2138 2142 0
-2139 2143 0
-2140 2144 0
-2141 2145 0
-234 -2138 2143 0
-234 -2139 2144 0
-234 -2140 2145 0
-234 -2141 0
-235 2146 0
-2142 2146 0
-2143 2147 0
-2144 2148 0
-2145 2149 0
-235 -2142 2147 0
-235 -2143 2148 0
-235 -2144 2149 0
-235 -2145 0
-236 2150 0
-2146 2150 0
-2147 2151 0
-2148 2152 0
-2149 2153 0
-236 -2146 2151 0
-236 -2147 2152 0
-236 -2148 2153 0
-236 -2149 0
-237 2154 0
-2150 2154 0
-2151 2155 0
-2152 2156 0
-2153 2157 0
-237 -2150 2155 0
-237 -2151 2156 0
-237 -2152 2157 0
-237 -2153 0
-238 2158 0
-2154 2158 0
-2155 2159 0
-2156 2160 0
-2157 2161 0
-238 -2154 2159 0
-238 -2155 2160 0
-238 -2156 2161 0
-238 -2157 0
-239 2162 0
-2158 2162 0
-2159 2163 0
-2160 2164 0
-2161 2165 0
-239 -2158 2163 0
-239 -2159 2164 0
-239 -2160 2165 0
-239 -2161 0
-240 2166 0
-2162 2166 0
-2163 2167 0
-2164 2168 0
-2165 2169 0
-240 -2162 2167 0
-240 -2163 2168 0
-240 -2164 2169 0
-240 -2165 0
-241 2170 0
-2166 2170 0
-2167 2171 0
-2168 2172 0
-2169 2173 0
-241 -2166 2171 0
-241 -2167 2172 0
-241 -2168 2173 0
-241 -2169 0
-242 2174 0
-2170 2174 0
-2171 2175 0
-2172 2176 0
-2173 2177 0
-242 -2170 2175 0
-242 -2171 2176 0
-242 -2172 2177 0
-242 -2173 0
-243 2178 0
-2174 2178 0
-2175 2179 0
-2176 2180 0
-2177 2181 0
-243 -2174 2179 0
-243 -2175 2180 0
-243 -2176 2181 0
-243 -2177 0
