c no extendable projection has at most 41 edges
p cnf 7760 16218
-1 -2 -3 0
-1 2 3 0
1 -2 3 0
1 2 -3 0
-196 -197 -198 0
-196 197 198 0
196 -197 198 0
196 197 -198 0
-391 -392 -393 0
-391 392 393 0
391 -392 393 0
391 392 -393 0
-4 -5 -6 0
-4 5 6 0
4 -5 6 0
4 5 -6 0
-199 -200 -201 0
-199 200 201 0
199 -200 201 0
199 200 -201 0
-394 -395 -396 0
-394 395 396 0
394 -395 396 0
394 395 -396 0
-7 -8 -9 0
-7 8 9 0
7 -8 9 0
7 8 -9 0
-202 -203 -204 0
-202 203 204 0
202 -203 204 0
202 203 -204 0
-397 -398 -399 0
-397 398 399 0
397 -398 399 0
397 398 -399 0
-10 -11 -12 0
-10 11 12 0
10 -11 12 0
10 11 -12 0
-205 -206 -207 0
-205 206 207 0
205 -206 207 0
205 206 -207 0
-400 -401 -402 0
-400 401 402 0
400 -401 402 0
400 401 -402 0
-13 -14 -15 0
-13 14 15 0
13 -14 15 0
13 14 -15 0
-208 -209 -210 0
-208 209 210 0
208 -209 210 0
208 209 -210 0
-403 -404 -405 0
-403 404 405 0
403 -404 405 0
403 404 -405 0
-16 -17 -18 0
-16 17 18 0
16 -17 18 0
16 17 -18 0
-211 -212 -213 0
-211 212 213 0
211 -212 213 0
211 212 -213 0
-406 -407 -408 0
-406 407 408 0
406 -407 408 0
406 407 -408 0
-19 -20 -21 0
-19 20 21 0
19 -20 21 0
19 20 -21 0
-214 -215 -216 0
-214 215 216 0
214 -215 216 0
214 215 -216 0
-409 -410 -411 0
-409 410 411 0
409 -410 411 0
409 410 -411 0
-22 -23 -24 0
-22 23 24 0
22 -23 24 0
22 23 -24 0
-217 -218 -219 0
-217 218 219 0
217 -218 219 0
217 218 -219 0
-412 -413 -414 0
-412 413 414 0
412 -413 414 0
412 413 -414 0
-25 -26 -27 0
-25 26 27 0
25 -26 27 0
25 26 -27 0
-220 -221 -222 0
-220 221 222 0
220 -221 222 0
220 221 -222 0
-415 -416 -417 0
-415 416 417 0
415 -416 417 0
415 416 -417 0
-4 -28 -29 0
-4 28 29 0
4 -28 29 0
4 28 -29 0
-199 -223 -224 0
-199 223 224 0
199 -223 224 0
199 223 -224 0
-394 -418 -419 0
-394 418 419 0
394 -418 419 0
394 418 -419 0
-7 -30 -31 0
-7 30 31 0
7 -30 31 0
7 30 -31 0
-202 -225 -226 0
-202 225 226 0
202 -225 226 0
202 225 -226 0
-397 -420 -421 0
-397 420 421 0
397 -420 421 0
397 420 -421 0
-10 -13 -32 0
-10 13 32 0
10 -13 32 0
10 13 -32 0
-205 -208 -227 0
-205 208 227 0
205 -208 227 0
205 208 -227 0
-400 -403 -422 0
-400 403 422 0
400 -403 422 0
400 403 -422 0
-11 -16 -33 0
-11 16 33 0
11 -16 33 0
11 16 -33 0
-206 -211 -228 0
-206 211 228 0
206 -211 228 0
206 211 -228 0
-401 -406 -423 0
-401 406 423 0
401 -406 423 0
401 406 -423 0
-12 -14 -25 0
-12 14 25 0
12 -14 25 0
12 14 -25 0
-207 -209 -220 0
-207 209 220 0
207 -209 220 0
207 209 -220 0
-402 -404 -415 0
-402 404 415 0
402 -404 415 0
402 404 -415 0
-5 -19 -26 0
-5 19 26 0
5 -19 26 0
5 19 -26 0
-200 -214 -221 0
-200 214 221 0
200 -214 221 0
200 214 -221 0
-395 -409 -416 0
-395 409 416 0
395 -409 416 0
395 409 -416 0
-6 -17 -20 0
-6 17 20 0
6 -17 20 0
6 17 -20 0
-201 -212 -215 0
-201 212 215 0
201 -212 215 0
201 212 -215 0
-396 -407 -410 0
-396 407 410 0
396 -407 410 0
396 407 -410 0
-8 -18 -21 0
-8 18 21 0
8 -18 21 0
8 18 -21 0
-203 -213 -216 0
-203 213 216 0
203 -213 216 0
203 213 -216 0
-398 -408 -411 0
-398 408 411 0
398 -408 411 0
398 408 -411 0
-15 -22 -30 0
-15 22 30 0
15 -22 30 0
15 22 -30 0
-210 -217 -225 0
-210 217 225 0
210 -217 225 0
210 217 -225 0
-405 -412 -420 0
-405 412 420 0
405 -412 420 0
405 412 -420 0
-23 -28 -31 0
-23 28 31 0
23 -28 31 0
23 28 -31 0
-218 -223 -226 0
-218 223 226 0
218 -223 226 0
218 223 -226 0
-413 -418 -421 0
-413 418 421 0
413 -418 421 0
413 418 -421 0
-9 -24 -29 0
-9 24 29 0
9 -24 29 0
9 24 -29 0
-204 -219 -224 0
-204 219 224 0
204 -219 224 0
204 219 -224 0
-399 -414 -419 0
-399 414 419 0
399 -414 419 0
399 414 -419 0
-34 -35 -36 0
-34 35 36 0
34 -35 36 0
34 35 -36 0
-229 -230 -231 0
-229 230 231 0
229 -230 231 0
229 230 -231 0
-424 -425 -426 0
-424 425 426 0
424 -425 426 0
424 425 -426 0
-37 -38 -39 0
-37 38 39 0
37 -38 39 0
37 38 -39 0
-232 -233 -234 0
-232 233 234 0
232 -233 234 0
232 233 -234 0
-427 -428 -429 0
-427 428 429 0
427 -428 429 0
427 428 -429 0
-40 -41 -42 0
-40 41 42 0
40 -41 42 0
40 41 -42 0
-235 -236 -237 0
-235 236 237 0
235 -236 237 0
235 236 -237 0
-430 -431 -432 0
-430 431 432 0
430 -431 432 0
430 431 -432 0
-34 -43 -44 0
-34 43 44 0
34 -43 44 0
34 43 -44 0
-229 -238 -239 0
-229 238 239 0
229 -238 239 0
229 238 -239 0
-424 -433 -434 0
-424 433 434 0
424 -433 434 0
424 433 -434 0
-27 -37 -45 0
-27 37 45 0
27 -37 45 0
27 37 -45 0
-222 -232 -240 0
-222 232 240 0
222 -232 240 0
222 232 -240 0
-417 -427 -435 0
-417 427 435 0
417 -427 435 0
417 427 -435 0
-35 -38 -40 0
-35 38 40 0
35 -38 40 0
35 38 -40 0
-230 -233 -235 0
-230 233 235 0
230 -233 235 0
230 233 -235 0
-425 -428 -430 0
-425 428 430 0
425 -428 430 0
425 428 -430 0
-39 -43 -46 0
-39 43 46 0
39 -43 46 0
39 43 -46 0
-234 -238 -241 0
-234 238 241 0
234 -238 241 0
234 238 -241 0
-429 -433 -436 0
-429 433 436 0
429 -433 436 0
429 433 -436 0
-41 -44 -45 0
-41 44 45 0
41 -44 45 0
41 44 -45 0
-236 -239 -240 0
-236 239 240 0
236 -239 240 0
236 239 -240 0
-431 -434 -435 0
-431 434 435 0
431 -434 435 0
431 434 -435 0
-47 -48 -49 0
-47 48 49 0
47 -48 49 0
47 48 -49 0
-242 -243 -244 0
-242 243 244 0
242 -243 244 0
242 243 -244 0
-437 -438 -439 0
-437 438 439 0
437 -438 439 0
437 438 -439 0
-50 -51 -52 0
-50 51 52 0
50 -51 52 0
50 51 -52 0
-245 -246 -247 0
-245 246 247 0
245 -246 247 0
245 246 -247 0
-440 -441 -442 0
-440 441 442 0
440 -441 442 0
440 441 -442 0
-53 -54 -55 0
-53 54 55 0
53 -54 55 0
53 54 -55 0
-248 -249 -250 0
-248 249 250 0
248 -249 250 0
248 249 -250 0
-443 -444 -445 0
-443 444 445 0
443 -444 445 0
443 444 -445 0
-47 -56 -57 0
-47 56 57 0
47 -56 57 0
47 56 -57 0
-242 -251 -252 0
-242 251 252 0
242 -251 252 0
242 251 -252 0
-437 -446 -447 0
-437 446 447 0
437 -446 447 0
437 446 -447 0
-32 -50 -58 0
-32 50 58 0
32 -50 58 0
32 50 -58 0
-227 -245 -253 0
-227 245 253 0
227 -245 253 0
227 245 -253 0
-422 -440 -448 0
-422 440 448 0
422 -440 448 0
422 440 -448 0
-48 -51 -53 0
-48 51 53 0
48 -51 53 0
48 51 -53 0
-243 -246 -248 0
-243 246 248 0
243 -246 248 0
243 246 -248 0
-438 -441 -443 0
-438 441 443 0
438 -441 443 0
438 441 -443 0
-52 -56 -59 0
-52 56 59 0
52 -56 59 0
52 56 -59 0
-247 -251 -254 0
-247 251 254 0
247 -251 254 0
247 251 -254 0
-442 -446 -449 0
-442 446 449 0
442 -446 449 0
442 446 -449 0
-54 -57 -58 0
-54 57 58 0
54 -57 58 0
54 57 -58 0
-249 -252 -253 0
-249 252 253 0
249 -252 253 0
249 252 -253 0
-444 -447 -448 0
-444 447 448 0
444 -447 448 0
444 447 -448 0
-1 -60 -61 0
-1 60 61 0
1 -60 61 0
1 60 -61 0
-196 -255 -256 0
-196 255 256 0
196 -255 256 0
196 255 -256 0
-391 -450 -451 0
-391 450 451 0
391 -450 451 0
391 450 -451 0
-62 -63 -64 0
-62 63 64 0
62 -63 64 0
62 63 -64 0
-257 -258 -259 0
-257 258 259 0
257 -258 259 0
257 258 -259 0
-452 -453 -454 0
-452 453 454 0
452 -453 454 0
452 453 -454 0
-65 -66 -67 0
-65 66 67 0
65 -66 67 0
65 66 -67 0
-260 -261 -262 0
-260 261 262 0
260 -261 262 0
260 261 -262 0
-455 -456 -457 0
-455 456 457 0
455 -456 457 0
455 456 -457 0
-60 -68 -69 0
-60 68 69 0
60 -68 69 0
60 68 -69 0
-255 -263 -264 0
-255 263 264 0
255 -263 264 0
255 263 -264 0
-450 -458 -459 0
-450 458 459 0
450 -458 459 0
450 458 -459 0
-33 -62 -70 0
-33 62 70 0
33 -62 70 0
33 62 -70 0
-228 -257 -265 0
-228 257 265 0
228 -257 265 0
228 257 -265 0
-423 -452 -460 0
-423 452 460 0
423 -452 460 0
423 452 -460 0
-61 -63 -65 0
-61 63 65 0
61 -63 65 0
61 63 -65 0
-256 -258 -260 0
-256 258 260 0
256 -258 260 0
256 258 -260 0
-451 -453 -455 0
-451 453 455 0
451 -453 455 0
451 453 -455 0
-64 -68 -71 0
-64 68 71 0
64 -68 71 0
64 68 -71 0
-259 -263 -266 0
-259 263 266 0
259 -263 266 0
259 263 -266 0
-454 -458 -461 0
-454 458 461 0
454 -458 461 0
454 458 -461 0
-66 -69 -70 0
-66 69 70 0
66 -69 70 0
66 69 -70 0
-261 -264 -265 0
-261 264 265 0
261 -264 265 0
261 264 -265 0
-456 -459 -460 0
-456 459 460 0
456 -459 460 0
456 459 -460 0
-2 -72 -73 0
-2 72 73 0
2 -72 73 0
2 72 -73 0
-197 -267 -268 0
-197 267 268 0
197 -267 268 0
197 267 -268 0
-392 -462 -463 0
-392 462 463 0
392 -462 463 0
392 462 -463 0
-74 -75 -76 0
-74 75 76 0
74 -75 76 0
74 75 -76 0
-269 -270 -271 0
-269 270 271 0
269 -270 271 0
269 270 -271 0
-464 -465 -466 0
-464 465 466 0
464 -465 466 0
464 465 -466 0
-77 -78 -79 0
-77 78 79 0
77 -78 79 0
77 78 -79 0
-272 -273 -274 0
-272 273 274 0
272 -273 274 0
272 273 -274 0
-467 -468 -469 0
-467 468 469 0
467 -468 469 0
467 468 -469 0
-72 -80 -81 0
-72 80 81 0
72 -80 81 0
72 80 -81 0
-267 -275 -276 0
-267 275 276 0
267 -275 276 0
267 275 -276 0
-462 -470 -471 0
-462 470 471 0
462 -470 471 0
462 470 -471 0
-36 -74 -82 0
-36 74 82 0
36 -74 82 0
36 74 -82 0
-231 -269 -277 0
-231 269 277 0
231 -269 277 0
231 269 -277 0
-426 -464 -472 0
-426 464 472 0
426 -464 472 0
426 464 -472 0
-73 -75 -77 0
-73 75 77 0
73 -75 77 0
73 75 -77 0
-268 -270 -272 0
-268 270 272 0
268 -270 272 0
268 270 -272 0
-463 -465 -467 0
-463 465 467 0
463 -465 467 0
463 465 -467 0
-76 -80 -83 0
-76 80 83 0
76 -80 83 0
76 80 -83 0
-271 -275 -278 0
-271 275 278 0
271 -275 278 0
271 275 -278 0
-466 -470 -473 0
-466 470 473 0
466 -470 473 0
466 470 -473 0
-78 -81 -82 0
-78 81 82 0
78 -81 82 0
78 81 -82 0
-273 -276 -277 0
-273 276 277 0
273 -276 277 0
273 276 -277 0
-468 -471 -472 0
-468 471 472 0
468 -471 472 0
468 471 -472 0
-3 -84 -85 0
-3 84 85 0
3 -84 85 0
3 84 -85 0
-198 -279 -280 0
-198 279 280 0
198 -279 280 0
198 279 -280 0
-393 -474 -475 0
-393 474 475 0
393 -474 475 0
393 474 -475 0
-86 -87 -88 0
-86 87 88 0
86 -87 88 0
86 87 -88 0
-281 -282 -283 0
-281 282 283 0
281 -282 283 0
281 282 -283 0
-476 -477 -478 0
-476 477 478 0
476 -477 478 0
476 477 -478 0
-89 -90 -91 0
-89 90 91 0
89 -90 91 0
89 90 -91 0
-284 -285 -286 0
-284 285 286 0
284 -285 286 0
284 285 -286 0
-479 -480 -481 0
-479 480 481 0
479 -480 481 0
479 480 -481 0
-84 -92 -93 0
-84 92 93 0
84 -92 93 0
84 92 -93 0
-279 -287 -288 0
-279 287 288 0
279 -287 288 0
279 287 -288 0
-474 -482 -483 0
-474 482 483 0
474 -482 483 0
474 482 -483 0
-49 -86 -94 0
-49 86 94 0
49 -86 94 0
49 86 -94 0
-244 -281 -289 0
-244 281 289 0
244 -281 289 0
244 281 -289 0
-439 -476 -484 0
-439 476 484 0
439 -476 484 0
439 476 -484 0
-85 -87 -89 0
-85 87 89 0
85 -87 89 0
85 87 -89 0
-280 -282 -284 0
-280 282 284 0
280 -282 284 0
280 282 -284 0
-475 -477 -479 0
-475 477 479 0
475 -477 479 0
475 477 -479 0
-88 -92 -95 0
-88 92 95 0
88 -92 95 0
88 92 -95 0
-283 -287 -290 0
-283 287 290 0
283 -287 290 0
283 287 -290 0
-478 -482 -485 0
-478 482 485 0
478 -482 485 0
478 482 -485 0
-90 -93 -94 0
-90 93 94 0
90 -93 94 0
90 93 -94 0
-285 -288 -289 0
-285 288 289 0
285 -288 289 0
285 288 -289 0
-480 -483 -484 0
-480 483 484 0
480 -483 484 0
480 483 -484 0
-42 -46 -96 0
-42 46 96 0
42 -46 96 0
42 46 -96 0
-237 -241 -291 0
-237 241 291 0
237 -241 291 0
237 241 -291 0
-432 -436 -486 0
-432 436 486 0
432 -436 486 0
432 436 -486 0
-55 -59 -97 0
-55 59 97 0
55 -59 97 0
55 59 -97 0
-250 -254 -292 0
-250 254 292 0
250 -254 292 0
250 254 -292 0
-445 -449 -487 0
-445 449 487 0
445 -449 487 0
445 449 -487 0
-67 -71 -98 0
-67 71 98 0
67 -71 98 0
67 71 -98 0
-262 -266 -293 0
-262 266 293 0
262 -266 293 0
262 266 -293 0
-457 -461 -488 0
-457 461 488 0
457 -461 488 0
457 461 -488 0
-79 -83 -99 0
-79 83 99 0
79 -83 99 0
79 83 -99 0
-274 -278 -294 0
-274 278 294 0
274 -278 294 0
274 278 -294 0
-469 -473 -489 0
-469 473 489 0
469 -473 489 0
469 473 -489 0
-91 -95 -100 0
-91 95 100 0
91 -95 100 0
91 95 -100 0
-286 -290 -295 0
-286 290 295 0
286 -290 295 0
286 290 -295 0
-481 -485 -490 0
-481 485 490 0
481 -485 490 0
481 485 -490 0
-101 -102 -103 0
-101 102 103 0
101 -102 103 0
101 102 -103 0
-296 -297 -298 0
-296 297 298 0
296 -297 298 0
296 297 -298 0
-491 -492 -493 0
-491 492 493 0
491 -492 493 0
491 492 -493 0
-104 -105 -106 0
-104 105 106 0
104 -105 106 0
104 105 -106 0
-299 -300 -301 0
-299 300 301 0
299 -300 301 0
299 300 -301 0
-494 -495 -496 0
-494 495 496 0
494 -495 496 0
494 495 -496 0
-107 -108 -109 0
-107 108 109 0
107 -108 109 0
107 108 -109 0
-302 -303 -304 0
-302 303 304 0
302 -303 304 0
302 303 -304 0
-497 -498 -499 0
-497 498 499 0
497 -498 499 0
497 498 -499 0
-110 -111 -112 0
-110 111 112 0
110 -111 112 0
110 111 -112 0
-305 -306 -307 0
-305 306 307 0
305 -306 307 0
305 306 -307 0
-500 -501 -502 0
-500 501 502 0
500 -501 502 0
500 501 -502 0
-113 -114 -115 0
-113 114 115 0
113 -114 115 0
113 114 -115 0
-308 -309 -310 0
-308 309 310 0
308 -309 310 0
308 309 -310 0
-503 -504 -505 0
-503 504 505 0
503 -504 505 0
503 504 -505 0
-116 -117 -118 0
-116 117 118 0
116 -117 118 0
116 117 -118 0
-311 -312 -313 0
-311 312 313 0
311 -312 313 0
311 312 -313 0
-506 -507 -508 0
-506 507 508 0
506 -507 508 0
506 507 -508 0
-119 -120 -121 0
-119 120 121 0
119 -120 121 0
119 120 -121 0
-314 -315 -316 0
-314 315 316 0
314 -315 316 0
314 315 -316 0
-509 -510 -511 0
-509 510 511 0
509 -510 511 0
509 510 -511 0
-122 -123 -124 0
-122 123 124 0
122 -123 124 0
122 123 -124 0
-317 -318 -319 0
-317 318 319 0
317 -318 319 0
317 318 -319 0
-512 -513 -514 0
-512 513 514 0
512 -513 514 0
512 513 -514 0
-125 -126 -127 0
-125 126 127 0
125 -126 127 0
125 126 -127 0
-320 -321 -322 0
-320 321 322 0
320 -321 322 0
320 321 -322 0
-515 -516 -517 0
-515 516 517 0
515 -516 517 0
515 516 -517 0
-104 -128 -129 0
-104 128 129 0
104 -128 129 0
104 128 -129 0
-299 -323 -324 0
-299 323 324 0
299 -323 324 0
299 323 -324 0
-494 -518 -519 0
-494 518 519 0
494 -518 519 0
494 518 -519 0
-107 -130 -131 0
-107 130 131 0
107 -130 131 0
107 130 -131 0
-302 -325 -326 0
-302 325 326 0
302 -325 326 0
302 325 -326 0
-497 -520 -521 0
-497 520 521 0
497 -520 521 0
497 520 -521 0
-110 -113 -132 0
-110 113 132 0
110 -113 132 0
110 113 -132 0
-305 -308 -327 0
-305 308 327 0
305 -308 327 0
305 308 -327 0
-500 -503 -522 0
-500 503 522 0
500 -503 522 0
500 503 -522 0
-111 -116 -133 0
-111 116 133 0
111 -116 133 0
111 116 -133 0
-306 -311 -328 0
-306 311 328 0
306 -311 328 0
306 311 -328 0
-501 -506 -523 0
-501 506 523 0
501 -506 523 0
501 506 -523 0
-112 -114 -125 0
-112 114 125 0
112 -114 125 0
112 114 -125 0
-307 -309 -320 0
-307 309 320 0
307 -309 320 0
307 309 -320 0
-502 -504 -515 0
-502 504 515 0
502 -504 515 0
502 504 -515 0
-105 -119 -126 0
-105 119 126 0
105 -119 126 0
105 119 -126 0
-300 -314 -321 0
-300 314 321 0
300 -314 321 0
300 314 -321 0
-495 -509 -516 0
-495 509 516 0
495 -509 516 0
495 509 -516 0
-106 -117 -120 0
-106 117 120 0
106 -117 120 0
106 117 -120 0
-301 -312 -315 0
-301 312 315 0
301 -312 315 0
301 312 -315 0
-496 -507 -510 0
-496 507 510 0
496 -507 510 0
496 507 -510 0
-108 -118 -121 0
-108 118 121 0
108 -118 121 0
108 118 -121 0
-303 -313 -316 0
-303 313 316 0
303 -313 316 0
303 313 -316 0
-498 -508 -511 0
-498 508 511 0
498 -508 511 0
498 508 -511 0
-115 -122 -130 0
-115 122 130 0
115 -122 130 0
115 122 -130 0
-310 -317 -325 0
-310 317 325 0
310 -317 325 0
310 317 -325 0
-505 -512 -520 0
-505 512 520 0
505 -512 520 0
505 512 -520 0
-123 -128 -131 0
-123 128 131 0
123 -128 131 0
123 128 -131 0
-318 -323 -326 0
-318 323 326 0
318 -323 326 0
318 323 -326 0
-513 -518 -521 0
-513 518 521 0
513 -518 521 0
513 518 -521 0
-109 -124 -129 0
-109 124 129 0
109 -124 129 0
109 124 -129 0
-304 -319 -324 0
-304 319 324 0
304 -319 324 0
304 319 -324 0
-499 -514 -519 0
-499 514 519 0
499 -514 519 0
499 514 -519 0
-134 -135 -136 0
-134 135 136 0
134 -135 136 0
134 135 -136 0
-329 -330 -331 0
-329 330 331 0
329 -330 331 0
329 330 -331 0
-524 -525 -526 0
-524 525 526 0
524 -525 526 0
524 525 -526 0
-137 -138 -139 0
-137 138 139 0
137 -138 139 0
137 138 -139 0
-332 -333 -334 0
-332 333 334 0
332 -333 334 0
332 333 -334 0
-527 -528 -529 0
-527 528 529 0
527 -528 529 0
527 528 -529 0
-140 -141 -142 0
-140 141 142 0
140 -141 142 0
140 141 -142 0
-335 -336 -337 0
-335 336 337 0
335 -336 337 0
335 336 -337 0
-530 -531 -532 0
-530 531 532 0
530 -531 532 0
530 531 -532 0
-134 -143 -144 0
-134 143 144 0
134 -143 144 0
134 143 -144 0
-329 -338 -339 0
-329 338 339 0
329 -338 339 0
329 338 -339 0
-524 -533 -534 0
-524 533 534 0
524 -533 534 0
524 533 -534 0
-127 -137 -145 0
-127 137 145 0
127 -137 145 0
127 137 -145 0
-322 -332 -340 0
-322 332 340 0
322 -332 340 0
322 332 -340 0
-517 -527 -535 0
-517 527 535 0
517 -527 535 0
517 527 -535 0
-135 -138 -140 0
-135 138 140 0
135 -138 140 0
135 138 -140 0
-330 -333 -335 0
-330 333 335 0
330 -333 335 0
330 333 -335 0
-525 -528 -530 0
-525 528 530 0
525 -528 530 0
525 528 -530 0
-139 -143 -146 0
-139 143 146 0
139 -143 146 0
139 143 -146 0
-334 -338 -341 0
-334 338 341 0
334 -338 341 0
334 338 -341 0
-529 -533 -536 0
-529 533 536 0
529 -533 536 0
529 533 -536 0
-141 -144 -145 0
-141 144 145 0
141 -144 145 0
141 144 -145 0
-336 -339 -340 0
-336 339 340 0
336 -339 340 0
336 339 -340 0
-531 -534 -535 0
-531 534 535 0
531 -534 535 0
531 534 -535 0
-147 -148 -149 0
-147 148 149 0
147 -148 149 0
147 148 -149 0
-342 -343 -344 0
-342 343 344 0
342 -343 344 0
342 343 -344 0
-537 -538 -539 0
-537 538 539 0
537 -538 539 0
537 538 -539 0
-150 -151 -152 0
-150 151 152 0
150 -151 152 0
150 151 -152 0
-345 -346 -347 0
-345 346 347 0
345 -346 347 0
345 346 -347 0
-540 -541 -542 0
-540 541 542 0
540 -541 542 0
540 541 -542 0
-153 -154 -155 0
-153 154 155 0
153 -154 155 0
153 154 -155 0
-348 -349 -350 0
-348 349 350 0
348 -349 350 0
348 349 -350 0
-543 -544 -545 0
-543 544 545 0
543 -544 545 0
543 544 -545 0
-147 -156 -157 0
-147 156 157 0
147 -156 157 0
147 156 -157 0
-342 -351 -352 0
-342 351 352 0
342 -351 352 0
342 351 -352 0
-537 -546 -547 0
-537 546 547 0
537 -546 547 0
537 546 -547 0
-132 -150 -158 0
-132 150 158 0
132 -150 158 0
132 150 -158 0
-327 -345 -353 0
-327 345 353 0
327 -345 353 0
327 345 -353 0
-522 -540 -548 0
-522 540 548 0
522 -540 548 0
522 540 -548 0
-148 -151 -153 0
-148 151 153 0
148 -151 153 0
148 151 -153 0
-343 -346 -348 0
-343 346 348 0
343 -346 348 0
343 346 -348 0
-538 -541 -543 0
-538 541 543 0
538 -541 543 0
538 541 -543 0
-152 -156 -159 0
-152 156 159 0
152 -156 159 0
152 156 -159 0
-347 -351 -354 0
-347 351 354 0
347 -351 354 0
347 351 -354 0
-542 -546 -549 0
-542 546 549 0
542 -546 549 0
542 546 -549 0
-154 -157 -158 0
-154 157 158 0
154 -157 158 0
154 157 -158 0
-349 -352 -353 0
-349 352 353 0
349 -352 353 0
349 352 -353 0
-544 -547 -548 0
-544 547 548 0
544 -547 548 0
544 547 -548 0
-101 -160 -161 0
-101 160 161 0
101 -160 161 0
101 160 -161 0
-296 -355 -356 0
-296 355 356 0
296 -355 356 0
296 355 -356 0
-491 -550 -551 0
-491 550 551 0
491 -550 551 0
491 550 -551 0
-162 -163 -164 0
-162 163 164 0
162 -163 164 0
162 163 -164 0
-357 -358 -359 0
-357 358 359 0
357 -358 359 0
357 358 -359 0
-552 -553 -554 0
-552 553 554 0
552 -553 554 0
552 553 -554 0
-165 -166 -167 0
-165 166 167 0
165 -166 167 0
165 166 -167 0
-360 -361 -362 0
-360 361 362 0
360 -361 362 0
360 361 -362 0
-555 -556 -557 0
-555 556 557 0
555 -556 557 0
555 556 -557 0
-160 -168 -169 0
-160 168 169 0
160 -168 169 0
160 168 -169 0
-355 -363 -364 0
-355 363 364 0
355 -363 364 0
355 363 -364 0
-550 -558 -559 0
-550 558 559 0
550 -558 559 0
550 558 -559 0
-133 -162 -170 0
-133 162 170 0
133 -162 170 0
133 162 -170 0
-328 -357 -365 0
-328 357 365 0
328 -357 365 0
328 357 -365 0
-523 -552 -560 0
-523 552 560 0
523 -552 560 0
523 552 -560 0
-161 -163 -165 0
-161 163 165 0
161 -163 165 0
161 163 -165 0
-356 -358 -360 0
-356 358 360 0
356 -358 360 0
356 358 -360 0
-551 -553 -555 0
-551 553 555 0
551 -553 555 0
551 553 -555 0
-164 -168 -171 0
-164 168 171 0
164 -168 171 0
164 168 -171 0
-359 -363 -366 0
-359 363 366 0
359 -363 366 0
359 363 -366 0
-554 -558 -561 0
-554 558 561 0
554 -558 561 0
554 558 -561 0
-166 -169 -170 0
-166 169 170 0
166 -169 170 0
166 169 -170 0
-361 -364 -365 0
-361 364 365 0
361 -364 365 0
361 364 -365 0
-556 -559 -560 0
-556 559 560 0
556 -559 560 0
556 559 -560 0
-102 -172 -173 0
-102 172 173 0
102 -172 173 0
102 172 -173 0
-297 -367 -368 0
-297 367 368 0
297 -367 368 0
297 367 -368 0
-492 -562 -563 0
-492 562 563 0
492 -562 563 0
492 562 -563 0
-174 -175 -176 0
-174 175 176 0
174 -175 176 0
174 175 -176 0
-369 -370 -371 0
-369 370 371 0
369 -370 371 0
369 370 -371 0
-564 -565 -566 0
-564 565 566 0
564 -565 566 0
564 565 -566 0
-177 -178 -179 0
-177 178 179 0
177 -178 179 0
177 178 -179 0
-372 -373 -374 0
-372 373 374 0
372 -373 374 0
372 373 -374 0
-567 -568 -569 0
-567 568 569 0
567 -568 569 0
567 568 -569 0
-172 -180 -181 0
-172 180 181 0
172 -180 181 0
172 180 -181 0
-367 -375 -376 0
-367 375 376 0
367 -375 376 0
367 375 -376 0
-562 -570 -571 0
-562 570 571 0
562 -570 571 0
562 570 -571 0
-136 -174 -182 0
-136 174 182 0
136 -174 182 0
136 174 -182 0
-331 -369 -377 0
-331 369 377 0
331 -369 377 0
331 369 -377 0
-526 -564 -572 0
-526 564 572 0
526 -564 572 0
526 564 -572 0
-173 -175 -177 0
-173 175 177 0
173 -175 177 0
173 175 -177 0
-368 -370 -372 0
-368 370 372 0
368 -370 372 0
368 370 -372 0
-563 -565 -567 0
-563 565 567 0
563 -565 567 0
563 565 -567 0
-176 -180 -183 0
-176 180 183 0
176 -180 183 0
176 180 -183 0
-371 -375 -378 0
-371 375 378 0
371 -375 378 0
371 375 -378 0
-566 -570 -573 0
-566 570 573 0
566 -570 573 0
566 570 -573 0
-178 -181 -182 0
-178 181 182 0
178 -181 182 0
178 181 -182 0
-373 -376 -377 0
-373 376 377 0
373 -376 377 0
373 376 -377 0
-568 -571 -572 0
-568 571 572 0
568 -571 572 0
568 571 -572 0
-103 -184 -185 0
-103 184 185 0
103 -184 185 0
103 184 -185 0
-298 -379 -380 0
-298 379 380 0
298 -379 380 0
298 379 -380 0
-493 -574 -575 0
-493 574 575 0
493 -574 575 0
493 574 -575 0
-186 -187 -188 0
-186 187 188 0
186 -187 188 0
186 187 -188 0
-381 -382 -383 0
-381 382 383 0
381 -382 383 0
381 382 -383 0
-576 -577 -578 0
-576 577 578 0
576 -577 578 0
576 577 -578 0
-189 -190 -191 0
-189 190 191 0
189 -190 191 0
189 190 -191 0
-384 -385 -386 0
-384 385 386 0
384 -385 386 0
384 385 -386 0
-579 -580 -581 0
-579 580 581 0
579 -580 581 0
579 580 -581 0
-184 -192 -193 0
-184 192 193 0
184 -192 193 0
184 192 -193 0
-379 -387 -388 0
-379 387 388 0
379 -387 388 0
379 387 -388 0
-574 -582 -583 0
-574 582 583 0
574 -582 583 0
574 582 -583 0
-149 -186 -194 0
-149 186 194 0
149 -186 194 0
149 186 -194 0
-344 -381 -389 0
-344 381 389 0
344 -381 389 0
344 381 -389 0
-539 -576 -584 0
-539 576 584 0
539 -576 584 0
539 576 -584 0
-185 -187 -189 0
-185 187 189 0
185 -187 189 0
185 187 -189 0
-380 -382 -384 0
-380 382 384 0
380 -382 384 0
380 382 -384 0
-575 -577 -579 0
-575 577 579 0
575 -577 579 0
575 577 -579 0
-188 -192 -195 0
-188 192 195 0
188 -192 195 0
188 192 -195 0
-383 -387 -390 0
-383 387 390 0
383 -387 390 0
383 387 -390 0
-578 -582 -585 0
-578 582 585 0
578 -582 585 0
578 582 -585 0
-190 -193 -194 0
-190 193 194 0
190 -193 194 0
190 193 -194 0
-385 -388 -389 0
-385 388 389 0
385 -388 389 0
385 388 -389 0
-580 -583 -584 0
-580 583 584 0
580 -583 584 0
580 583 -584 0
-96 -142 -146 0
-96 142 146 0
96 -142 146 0
96 142 -146 0
-291 -337 -341 0
-291 337 341 0
291 -337 341 0
291 337 -341 0
-486 -532 -536 0
-486 532 536 0
486 -532 536 0
486 532 -536 0
-97 -155 -159 0
-97 155 159 0
97 -155 159 0
97 155 -159 0
-292 -350 -354 0
-292 350 354 0
292 -350 354 0
292 350 -354 0
-487 -545 -549 0
-487 545 549 0
487 -545 549 0
487 545 -549 0
-98 -167 -171 0
-98 167 171 0
98 -167 171 0
98 167 -171 0
-293 -362 -366 0
-293 362 366 0
293 -362 366 0
293 362 -366 0
-488 -557 -561 0
-488 557 561 0
488 -557 561 0
488 557 -561 0
-99 -179 -183 0
-99 179 183 0
99 -179 183 0
99 179 -183 0
-294 -374 -378 0
-294 374 378 0
294 -374 378 0
294 374 -378 0
-489 -569 -573 0
-489 569 573 0
489 -569 573 0
489 569 -573 0
-100 -191 -195 0
-100 191 195 0
100 -191 195 0
100 191 -195 0
-295 -386 -390 0
-295 386 390 0
295 -386 390 0
295 386 -390 0
-490 -581 -585 0
-490 581 585 0
490 -581 585 0
490 581 -585 0
1 196 391 0
2 197 392 0
3 198 393 0
4 199 394 0
5 200 395 0
6 201 396 0
7 202 397 0
8 203 398 0
9 204 399 0
10 205 400 0
11 206 401 0
12 207 402 0
13 208 403 0
14 209 404 0
15 210 405 0
16 211 406 0
17 212 407 0
18 213 408 0
19 214 409 0
20 215 410 0
21 216 411 0
22 217 412 0
23 218 413 0
24 219 414 0
25 220 415 0
26 221 416 0
27 222 417 0
28 223 418 0
29 224 419 0
30 225 420 0
31 226 421 0
32 227 422 0
33 228 423 0
34 229 424 0
35 230 425 0
36 231 426 0
37 232 427 0
38 233 428 0
39 234 429 0
40 235 430 0
41 236 431 0
42 237 432 0
43 238 433 0
44 239 434 0
45 240 435 0
46 241 436 0
47 242 437 0
48 243 438 0
49 244 439 0
50 245 440 0
51 246 441 0
52 247 442 0
53 248 443 0
54 249 444 0
55 250 445 0
56 251 446 0
57 252 447 0
58 253 448 0
59 254 449 0
60 255 450 0
61 256 451 0
62 257 452 0
63 258 453 0
64 259 454 0
65 260 455 0
66 261 456 0
67 262 457 0
68 263 458 0
69 264 459 0
70 265 460 0
71 266 461 0
72 267 462 0
73 268 463 0
74 269 464 0
75 270 465 0
76 271 466 0
77 272 467 0
78 273 468 0
79 274 469 0
80 275 470 0
81 276 471 0
82 277 472 0
83 278 473 0
84 279 474 0
85 280 475 0
86 281 476 0
87 282 477 0
88 283 478 0
89 284 479 0
90 285 480 0
91 286 481 0
92 287 482 0
93 288 483 0
94 289 484 0
95 290 485 0
96 291 486 0
97 292 487 0
98 293 488 0
99 294 489 0
100 295 490 0
101 296 491 0
102 297 492 0
103 298 493 0
104 299 494 0
105 300 495 0
106 301 496 0
107 302 497 0
108 303 498 0
109 304 499 0
110 305 500 0
111 306 501 0
112 307 502 0
113 308 503 0
114 309 504 0
115 310 505 0
116 311 506 0
117 312 507 0
118 313 508 0
119 314 509 0
120 315 510 0
121 316 511 0
122 317 512 0
123 318 513 0
124 319 514 0
125 320 515 0
126 321 516 0
127 322 517 0
128 323 518 0
129 324 519 0
130 325 520 0
131 326 521 0
132 327 522 0
133 328 523 0
134 329 524 0
135 330 525 0
136 331 526 0
137 332 527 0
138 333 528 0
139 334 529 0
140 335 530 0
141 336 531 0
142 337 532 0
143 338 533 0
144 339 534 0
145 340 535 0
146 341 536 0
147 342 537 0
148 343 538 0
149 344 539 0
150 345 540 0
151 346 541 0
152 347 542 0
153 348 543 0
154 349 544 0
155 350 545 0
156 351 546 0
157 352 547 0
158 353 548 0
159 354 549 0
160 355 550 0
161 356 551 0
162 357 552 0
163 358 553 0
164 359 554 0
165 360 555 0
166 361 556 0
167 362 557 0
168 363 558 0
169 364 559 0
170 365 560 0
171 366 561 0
172 367 562 0
173 368 563 0
174 369 564 0
175 370 565 0
176 371 566 0
177 372 567 0
178 373 568 0
179 374 569 0
180 375 570 0
181 376 571 0
182 377 572 0
183 378 573 0
184 379 574 0
185 380 575 0
186 381 576 0
187 382 577 0
188 383 578 0
189 384 579 0
190 385 580 0
191 386 581 0
192 387 582 0
193 388 583 0
194 389 584 0
195 390 585 0
-1 586 0
-2 587 0
-586 587 0
-2 -586 588 0
-3 589 0
-587 589 0
-588 590 0
-3 -587 590 0
-3 -588 591 0
-4 592 0
-589 592 0
-590 593 0
-591 594 0
-4 -589 593 0
-4 -590 594 0
-4 -591 595 0
-5 596 0
-592 596 0
-593 597 0
-594 598 0
-595 599 0
-5 -592 597 0
-5 -593 598 0
-5 -594 599 0
-5 -595 600 0
-6 601 0
-596 601 0
-597 602 0
-598 603 0
-599 604 0
-600 605 0
-6 -596 602 0
-6 -597 603 0
-6 -598 604 0
-6 -599 605 0
-6 -600 606 0
-7 607 0
-601 607 0
-602 608 0
-603 609 0
-604 610 0
-605 611 0
-606 612 0
-7 -601 608 0
-7 -602 609 0
-7 -603 610 0
-7 -604 611 0
-7 -605 612 0
-7 -606 613 0
-8 614 0
-607 614 0
-608 615 0
-609 616 0
-610 617 0
-611 618 0
-612 619 0
-613 620 0
-8 -607 615 0
-8 -608 616 0
-8 -609 617 0
-8 -610 618 0
-8 -611 619 0
-8 -612 620 0
-8 -613 621 0
-9 622 0
-614 622 0
-615 623 0
-616 624 0
-617 625 0
-618 626 0
-619 627 0
-620 628 0
-621 629 0
-9 -614 623 0
-9 -615 624 0
-9 -616 625 0
-9 -617 626 0
-9 -618 627 0
-9 -619 628 0
-9 -620 629 0
-9 -621 630 0
-10 631 0
-622 631 0
-623 632 0
-624 633 0
-625 634 0
-626 635 0
-627 636 0
-628 637 0
-629 638 0
-630 639 0
-10 -622 632 0
-10 -623 633 0
-10 -624 634 0
-10 -625 635 0
-10 -626 636 0
-10 -627 637 0
-10 -628 638 0
-10 -629 639 0
-10 -630 640 0
-11 641 0
-631 641 0
-632 642 0
-633 643 0
-634 644 0
-635 645 0
-636 646 0
-637 647 0
-638 648 0
-639 649 0
-640 650 0
-11 -631 642 0
-11 -632 643 0
-11 -633 644 0
-11 -634 645 0
-11 -635 646 0
-11 -636 647 0
-11 -637 648 0
-11 -638 649 0
-11 -639 650 0
-11 -640 651 0
-12 652 0
-641 652 0
-642 653 0
-643 654 0
-644 655 0
-645 656 0
-646 657 0
-647 658 0
-648 659 0
-649 660 0
-650 661 0
-651 662 0
-12 -641 653 0
-12 -642 654 0
-12 -643 655 0
-12 -644 656 0
-12 -645 657 0
-12 -646 658 0
-12 -647 659 0
-12 -648 660 0
-12 -649 661 0
-12 -650 662 0
-12 -651 663 0
-13 664 0
-652 664 0
-653 665 0
-654 666 0
-655 667 0
-656 668 0
-657 669 0
-658 670 0
-659 671 0
-660 672 0
-661 673 0
-662 674 0
-663 675 0
-13 -652 665 0
-13 -653 666 0
-13 -654 667 0
-13 -655 668 0
-13 -656 669 0
-13 -657 670 0
-13 -658 671 0
-13 -659 672 0
-13 -660 673 0
-13 -661 674 0
-13 -662 675 0
-13 -663 676 0
-14 677 0
-664 677 0
-665 678 0
-666 679 0
-667 680 0
-668 681 0
-669 682 0
-670 683 0
-671 684 0
-672 685 0
-673 686 0
-674 687 0
-675 688 0
-676 689 0
-14 -664 678 0
-14 -665 679 0
-14 -666 680 0
-14 -667 681 0
-14 -668 682 0
-14 -669 683 0
-14 -670 684 0
-14 -671 685 0
-14 -672 686 0
-14 -673 687 0
-14 -674 688 0
-14 -675 689 0
-14 -676 690 0
-15 691 0
-677 691 0
-678 692 0
-679 693 0
-680 694 0
-681 695 0
-682 696 0
-683 697 0
-684 698 0
-685 699 0
-686 700 0
-687 701 0
-688 702 0
-689 703 0
-690 704 0
-15 -677 692 0
-15 -678 693 0
-15 -679 694 0
-15 -680 695 0
-15 -681 696 0
-15 -682 697 0
-15 -683 698 0
-15 -684 699 0
-15 -685 700 0
-15 -686 701 0
-15 -687 702 0
-15 -688 703 0
-15 -689 704 0
-15 -690 705 0
-16 706 0
-691 706 0
-692 707 0
-693 708 0
-694 709 0
-695 710 0
-696 711 0
-697 712 0
-698 713 0
-699 714 0
-700 715 0
-701 716 0
-702 717 0
-703 718 0
-704 719 0
-705 720 0
-16 -691 707 0
-16 -692 708 0
-16 -693 709 0
-16 -694 710 0
-16 -695 711 0
-16 -696 712 0
-16 -697 713 0
-16 -698 714 0
-16 -699 715 0
-16 -700 716 0
-16 -701 717 0
-16 -702 718 0
-16 -703 719 0
-16 -704 720 0
-16 -705 721 0
-17 722 0
-706 722 0
-707 723 0
-708 724 0
-709 725 0
-710 726 0
-711 727 0
-712 728 0
-713 729 0
-714 730 0
-715 731 0
-716 732 0
-717 733 0
-718 734 0
-719 735 0
-720 736 0
-721 737 0
-17 -706 723 0
-17 -707 724 0
-17 -708 725 0
-17 -709 726 0
-17 -710 727 0
-17 -711 728 0
-17 -712 729 0
-17 -713 730 0
-17 -714 731 0
-17 -715 732 0
-17 -716 733 0
-17 -717 734 0
-17 -718 735 0
-17 -719 736 0
-17 -720 737 0
-17 -721 738 0
-18 739 0
-722 739 0
-723 740 0
-724 741 0
-725 742 0
-726 743 0
-727 744 0
-728 745 0
-729 746 0
-730 747 0
-731 748 0
-732 749 0
-733 750 0
-734 751 0
-735 752 0
-736 753 0
-737 754 0
-738 755 0
-18 -722 740 0
-18 -723 741 0
-18 -724 742 0
-18 -725 743 0
-18 -726 744 0
-18 -727 745 0
-18 -728 746 0
-18 -729 747 0
-18 -730 748 0
-18 -731 749 0
-18 -732 750 0
-18 -733 751 0
-18 -734 752 0
-18 -735 753 0
-18 -736 754 0
-18 -737 755 0
-18 -738 756 0
-19 757 0
-739 757 0
-740 758 0
-741 759 0
-742 760 0
-743 761 0
-744 762 0
-745 763 0
-746 764 0
-747 765 0
-748 766 0
-749 767 0
-750 768 0
-751 769 0
-752 770 0
-753 771 0
-754 772 0
-755 773 0
-756 774 0
-19 -739 758 0
-19 -740 759 0
-19 -741 760 0
-19 -742 761 0
-19 -743 762 0
-19 -744 763 0
-19 -745 764 0
-19 -746 765 0
-19 -747 766 0
-19 -748 767 0
-19 -749 768 0
-19 -750 769 0
-19 -751 770 0
-19 -752 771 0
-19 -753 772 0
-19 -754 773 0
-19 -755 774 0
-19 -756 775 0
-20 776 0
-757 776 0
-758 777 0
-759 778 0
-760 779 0
-761 780 0
-762 781 0
-763 782 0
-764 783 0
-765 784 0
-766 785 0
-767 786 0
-768 787 0
-769 788 0
-770 789 0
-771 790 0
-772 791 0
-773 792 0
-774 793 0
-775 794 0
-20 -757 777 0
-20 -758 778 0
-20 -759 779 0
-20 -760 780 0
-20 -761 781 0
-20 -762 782 0
-20 -763 783 0
-20 -764 784 0
-20 -765 785 0
-20 -766 786 0
-20 -767 787 0
-20 -768 788 0
-20 -769 789 0
-20 -770 790 0
-20 -771 791 0
-20 -772 792 0
-20 -773 793 0
-20 -774 794 0
-20 -775 795 0
-21 796 0
-776 796 0
-777 797 0
-778 798 0
-779 799 0
-780 800 0
-781 801 0
-782 802 0
-783 803 0
-784 804 0
-785 805 0
-786 806 0
-787 807 0
-788 808 0
-789 809 0
-790 810 0
-791 811 0
-792 812 0
-793 813 0
-794 814 0
-795 815 0
-21 -776 797 0
-21 -777 798 0
-21 -778 799 0
-21 -779 800 0
-21 -780 801 0
-21 -781 802 0
-21 -782 803 0
-21 -783 804 0
-21 -784 805 0
-21 -785 806 0
-21 -786 807 0
-21 -787 808 0
-21 -788 809 0
-21 -789 810 0
-21 -790 811 0
-21 -791 812 0
-21 -792 813 0
-21 -793 814 0
-21 -794 815 0
-21 -795 816 0
-22 817 0
-796 817 0
-797 818 0
-798 819 0
-799 820 0
-800 821 0
-801 822 0
-802 823 0
-803 824 0
-804 825 0
-805 826 0
-806 827 0
-807 828 0
-808 829 0
-809 830 0
-810 831 0
-811 832 0
-812 833 0
-813 834 0
-814 835 0
-815 836 0
-816 837 0
-22 -796 818 0
-22 -797 819 0
-22 -798 820 0
-22 -799 821 0
-22 -800 822 0
-22 -801 823 0
-22 -802 824 0
-22 -803 825 0
-22 -804 826 0
-22 -805 827 0
-22 -806 828 0
-22 -807 829 0
-22 -808 830 0
-22 -809 831 0
-22 -810 832 0
-22 -811 833 0
-22 -812 834 0
-22 -813 835 0
-22 -814 836 0
-22 -815 837 0
-22 -816 838 0
-23 839 0
-817 839 0
-818 840 0
-819 841 0
-820 842 0
-821 843 0
-822 844 0
-823 845 0
-824 846 0
-825 847 0
-826 848 0
-827 849 0
-828 850 0
-829 851 0
-830 852 0
-831 853 0
-832 854 0
-833 855 0
-834 856 0
-835 857 0
-836 858 0
-837 859 0
-838 860 0
-23 -817 840 0
-23 -818 841 0
-23 -819 842 0
-23 -820 843 0
-23 -821 844 0
-23 -822 845 0
-23 -823 846 0
-23 -824 847 0
-23 -825 848 0
-23 -826 849 0
-23 -827 850 0
-23 -828 851 0
-23 -829 852 0
-23 -830 853 0
-23 -831 854 0
-23 -832 855 0
-23 -833 856 0
-23 -834 857 0
-23 -835 858 0
-23 -836 859 0
-23 -837 860 0
-23 -838 861 0
-24 862 0
-839 862 0
-840 863 0
-841 864 0
-842 865 0
-843 866 0
-844 867 0
-845 868 0
-846 869 0
-847 870 0
-848 871 0
-849 872 0
-850 873 0
-851 874 0
-852 875 0
-853 876 0
-854 877 0
-855 878 0
-856 879 0
-857 880 0
-858 881 0
-859 882 0
-860 883 0
-861 884 0
-24 -839 863 0
-24 -840 864 0
-24 -841 865 0
-24 -842 866 0
-24 -843 867 0
-24 -844 868 0
-24 -845 869 0
-24 -846 870 0
-24 -847 871 0
-24 -848 872 0
-24 -849 873 0
-24 -850 874 0
-24 -851 875 0
-24 -852 876 0
-24 -853 877 0
-24 -854 878 0
-24 -855 879 0
-24 -856 880 0
-24 -857 881 0
-24 -858 882 0
-24 -859 883 0
-24 -860 884 0
-24 -861 885 0
-25 886 0
-862 886 0
-863 887 0
-864 888 0
-865 889 0
-866 890 0
-867 891 0
-868 892 0
-869 893 0
-870 894 0
-871 895 0
-872 896 0
-873 897 0
-874 898 0
-875 899 0
-876 900 0
-877 901 0
-878 902 0
-879 903 0
-880 904 0
-881 905 0
-882 906 0
-883 907 0
-884 908 0
-885 909 0
-25 -862 887 0
-25 -863 888 0
-25 -864 889 0
-25 -865 890 0
-25 -866 891 0
-25 -867 892 0
-25 -868 893 0
-25 -869 894 0
-25 -870 895 0
-25 -871 896 0
-25 -872 897 0
-25 -873 898 0
-25 -874 899 0
-25 -875 900 0
-25 -876 901 0
-25 -877 902 0
-25 -878 903 0
-25 -879 904 0
-25 -880 905 0
-25 -881 906 0
-25 -882 907 0
-25 -883 908 0
-25 -884 909 0
-25 -885 910 0
-26 911 0
-886 911 0
-887 912 0
-888 913 0
-889 914 0
-890 915 0
-891 916 0
-892 917 0
-893 918 0
-894 919 0
-895 920 0
-896 921 0
-897 922 0
-898 923 0
-899 924 0
-900 925 0
-901 926 0
-902 927 0
-903 928 0
-904 929 0
-905 930 0
-906 931 0
-907 932 0
-908 933 0
-909 934 0
-910 935 0
-26 -886 912 0
-26 -887 913 0
-26 -888 914 0
-26 -889 915 0
-26 -890 916 0
-26 -891 917 0
-26 -892 918 0
-26 -893 919 0
-26 -894 920 0
-26 -895 921 0
-26 -896 922 0
-26 -897 923 0
-26 -898 924 0
-26 -899 925 0
-26 -900 926 0
-26 -901 927 0
-26 -902 928 0
-26 -903 929 0
-26 -904 930 0
-26 -905 931 0
-26 -906 932 0
-26 -907 933 0
-26 -908 934 0
-26 -909 935 0
-26 -910 936 0
-27 937 0
-911 937 0
-912 938 0
-913 939 0
-914 940 0
-915 941 0
-916 942 0
-917 943 0
-918 944 0
-919 945 0
-920 946 0
-921 947 0
-922 948 0
-923 949 0
-924 950 0
-925 951 0
-926 952 0
-927 953 0
-928 954 0
-929 955 0
-930 956 0
-931 957 0
-932 958 0
-933 959 0
-934 960 0
-935 961 0
-936 962 0
-27 -911 938 0
-27 -912 939 0
-27 -913 940 0
-27 -914 941 0
-27 -915 942 0
-27 -916 943 0
-27 -917 944 0
-27 -918 945 0
-27 -919 946 0
-27 -920 947 0
-27 -921 948 0
-27 -922 949 0
-27 -923 950 0
-27 -924 951 0
-27 -925 952 0
-27 -926 953 0
-27 -927 954 0
-27 -928 955 0
-27 -929 956 0
-27 -930 957 0
-27 -931 958 0
-27 -932 959 0
-27 -933 960 0
-27 -934 961 0
-27 -935 962 0
-27 -936 963 0
-28 964 0
-937 964 0
-938 965 0
-939 966 0
-940 967 0
-941 968 0
-942 969 0
-943 970 0
-944 971 0
-945 972 0
-946 973 0
-947 974 0
-948 975 0
-949 976 0
-950 977 0
-951 978 0
-952 979 0
-953 980 0
-954 981 0
-955 982 0
-956 983 0
-957 984 0
-958 985 0
-959 986 0
-960 987 0
-961 988 0
-962 989 0
-963 990 0
-28 -937 965 0
-28 -938 966 0
-28 -939 967 0
-28 -940 968 0
-28 -941 969 0
-28 -942 970 0
-28 -943 971 0
-28 -944 972 0
-28 -945 973 0
-28 -946 974 0
-28 -947 975 0
-28 -948 976 0
-28 -949 977 0
-28 -950 978 0
-28 -951 979 0
-28 -952 980 0
-28 -953 981 0
-28 -954 982 0
-28 -955 983 0
-28 -956 984 0
-28 -957 985 0
-28 -958 986 0
-28 -959 987 0
-28 -960 988 0
-28 -961 989 0
-28 -962 990 0
-28 -963 991 0
-29 992 0
-964 992 0
-965 993 0
-966 994 0
-967 995 0
-968 996 0
-969 997 0
-970 998 0
-971 999 0
-972 1000 0
-973 1001 0
-974 1002 0
-975 1003 0
-976 1004 0
-977 1005 0
-978 1006 0
-979 1007 0
-980 1008 0
-981 1009 0
-982 1010 0
-983 1011 0
-984 1012 0
-985 1013 0
-986 1014 0
-987 1015 0
-988 1016 0
-989 1017 0
-990 1018 0
-991 1019 0
-29 -964 993 0
-29 -965 994 0
-29 -966 995 0
-29 -967 996 0
-29 -968 997 0
-29 -969 998 0
-29 -970 999 0
-29 -971 1000 0
-29 -972 1001 0
-29 -973 1002 0
-29 -974 1003 0
-29 -975 1004 0
-29 -976 1005 0
-29 -977 1006 0
-29 -978 1007 0
-29 -979 1008 0
-29 -980 1009 0
-29 -981 1010 0
-29 -982 1011 0
-29 -983 1012 0
-29 -984 1013 0
-29 -985 1014 0
-29 -986 1015 0
-29 -987 1016 0
-29 -988 1017 0
-29 -989 1018 0
-29 -990 1019 0
-29 -991 1020 0
-30 1021 0
-992 1021 0
-993 1022 0
-994 1023 0
-995 1024 0
-996 1025 0
-997 1026 0
-998 1027 0
-999 1028 0
-1000 1029 0
-1001 1030 0
-1002 1031 0
-1003 1032 0
-1004 1033 0
-1005 1034 0
-1006 1035 0
-1007 1036 0
-1008 1037 0
-1009 1038 0
-1010 1039 0
-1011 1040 0
-1012 1041 0
-1013 1042 0
-1014 1043 0
-1015 1044 0
-1016 1045 0
-1017 1046 0
-1018 1047 0
-1019 1048 0
-1020 1049 0
-30 -992 1022 0
-30 -993 1023 0
-30 -994 1024 0
-30 -995 1025 0
-30 -996 1026 0
-30 -997 1027 0
-30 -998 1028 0
-30 -999 1029 0
-30 -1000 1030 0
-30 -1001 1031 0
-30 -1002 1032 0
-30 -1003 1033 0
-30 -1004 1034 0
-30 -1005 1035 0
-30 -1006 1036 0
-30 -1007 1037 0
-30 -1008 1038 0
-30 -1009 1039 0
-30 -1010 1040 0
-30 -1011 1041 0
-30 -1012 1042 0
-30 -1013 1043 0
-30 -1014 1044 0
-30 -1015 1045 0
-30 -1016 1046 0
-30 -1017 1047 0
-30 -1018 1048 0
-30 -1019 1049 0
-30 -1020 1050 0
-31 1051 0
-1021 1051 0
-1022 1052 0
-1023 1053 0
-1024 1054 0
-1025 1055 0
-1026 1056 0
-1027 1057 0
-1028 1058 0
-1029 1059 0
-1030 1060 0
-1031 1061 0
-1032 1062 0
-1033 1063 0
-1034 1064 0
-1035 1065 0
-1036 1066 0
-1037 1067 0
-1038 1068 0
-1039 1069 0
-1040 1070 0
-1041 1071 0
-1042 1072 0
-1043 1073 0
-1044 1074 0
-1045 1075 0
-1046 1076 0
-1047 1077 0
-1048 1078 0
-1049 1079 0
-1050 1080 0
-31 -1021 1052 0
-31 -1022 1053 0
-31 -1023 1054 0
-31 -1024 1055 0
-31 -1025 1056 0
-31 -1026 1057 0
-31 -1027 1058 0
-31 -1028 1059 0
-31 -1029 1060 0
-31 -1030 1061 0
-31 -1031 1062 0
-31 -1032 1063 0
-31 -1033 1064 0
-31 -1034 1065 0
-31 -1035 1066 0
-31 -1036 1067 0
-31 -1037 1068 0
-31 -1038 1069 0
-31 -1039 1070 0
-31 -1040 1071 0
-31 -1041 1072 0
-31 -1042 1073 0
-31 -1043 1074 0
-31 -1044 1075 0
-31 -1045 1076 0
-31 -1046 1077 0
-31 -1047 1078 0
-31 -1048 1079 0
-31 -1049 1080 0
-31 -1050 1081 0
-32 1082 0
-1051 1082 0
-1052 1083 0
-1053 1084 0
-1054 1085 0
-1055 1086 0
-1056 1087 0
-1057 1088 0
-1058 1089 0
-1059 1090 0
-1060 1091 0
-1061 1092 0
-1062 1093 0
-1063 1094 0
-1064 1095 0
-1065 1096 0
-1066 1097 0
-1067 1098 0
-1068 1099 0
-1069 1100 0
-1070 1101 0
-1071 1102 0
-1072 1103 0
-1073 1104 0
-1074 1105 0
-1075 1106 0
-1076 1107 0
-1077 1108 0
-1078 1109 0
-1079 1110 0
-1080 1111 0
-1081 1112 0
-32 -1051 1083 0
-32 -1052 1084 0
-32 -1053 1085 0
-32 -1054 1086 0
-32 -1055 1087 0
-32 -1056 1088 0
-32 -1057 1089 0
-32 -1058 1090 0
-32 -1059 1091 0
-32 -1060 1092 0
-32 -1061 1093 0
-32 -1062 1094 0
-32 -1063 1095 0
-32 -1064 1096 0
-32 -1065 1097 0
-32 -1066 1098 0
-32 -1067 1099 0
-32 -1068 1100 0
-32 -1069 1101 0
-32 -1070 1102 0
-32 -1071 1103 0
-32 -1072 1104 0
-32 -1073 1105 0
-32 -1074 1106 0
-32 -1075 1107 0
-32 -1076 1108 0
-32 -1077 1109 0
-32 -1078 1110 0
-32 -1079 1111 0
-32 -1080 1112 0
-32 -1081 1113 0
-33 1114 0
-1082 1114 0
-1083 1115 0
-1084 1116 0
-1085 1117 0
-1086 1118 0
-1087 1119 0
-1088 1120 0
-1089 1121 0
-1090 1122 0
-1091 1123 0
-1092 1124 0
-1093 1125 0
-1094 1126 0
-1095 1127 0
-1096 1128 0
-1097 1129 0
-1098 1130 0
-1099 1131 0
-1100 1132 0
-1101 1133 0
-1102 1134 0
-1103 1135 0
-1104 1136 0
-1105 1137 0
-1106 1138 0
-1107 1139 0
-1108 1140 0
-1109 1141 0
-1110 1142 0
-1111 1143 0
-1112 1144 0
-1113 1145 0
-33 -1082 1115 0
-33 -1083 1116 0
-33 -1084 1117 0
-33 -1085 1118 0
-33 -1086 1119 0
-33 -1087 1120 0
-33 -1088 1121 0
-33 -1089 1122 0
-33 -1090 1123 0
-33 -1091 1124 0
-33 -1092 1125 0
-33 -1093 1126 0
-33 -1094 1127 0
-33 -1095 1128 0
-33 -1096 1129 0
-33 -1097 1130 0
-33 -1098 1131 0
-33 -1099 1132 0
-33 -1100 1133 0
-33 -1101 1134 0
-33 -1102 1135 0
-33 -1103 1136 0
-33 -1104 1137 0
-33 -1105 1138 0
-33 -1106 1139 0
-33 -1107 1140 0
-33 -1108 1141 0
-33 -1109 1142 0
-33 -1110 1143 0
-33 -1111 1144 0
-33 -1112 1145 0
-33 -1113 1146 0
-34 1147 0
-1114 1147 0
-1115 1148 0
-1116 1149 0
-1117 1150 0
-1118 1151 0
-1119 1152 0
-1120 1153 0
-1121 1154 0
-1122 1155 0
-1123 1156 0
-1124 1157 0
-1125 1158 0
-1126 1159 0
-1127 1160 0
-1128 1161 0
-1129 1162 0
-1130 1163 0
-1131 1164 0
-1132 1165 0
-1133 1166 0
-1134 1167 0
-1135 1168 0
-1136 1169 0
-1137 1170 0
-1138 1171 0
-1139 1172 0
-1140 1173 0
-1141 1174 0
-1142 1175 0
-1143 1176 0
-1144 1177 0
-1145 1178 0
-1146 1179 0
-34 -1114 1148 0
-34 -1115 1149 0
-34 -1116 1150 0
-34 -1117 1151 0
-34 -1118 1152 0
-34 -1119 1153 0
-34 -1120 1154 0
-34 -1121 1155 0
-34 -1122 1156 0
-34 -1123 1157 0
-34 -1124 1158 0
-34 -1125 1159 0
-34 -1126 1160 0
-34 -1127 1161 0
-34 -1128 1162 0
-34 -1129 1163 0
-34 -1130 1164 0
-34 -1131 1165 0
-34 -1132 1166 0
-34 -1133 1167 0
-34 -1134 1168 0
-34 -1135 1169 0
-34 -1136 1170 0
-34 -1137 1171 0
-34 -1138 1172 0
-34 -1139 1173 0
-34 -1140 1174 0
-34 -1141 1175 0
-34 -1142 1176 0
-34 -1143 1177 0
-34 -1144 1178 0
-34 -1145 1179 0
-34 -1146 1180 0
-35 1181 0
-1147 1181 0
-1148 1182 0
-1149 1183 0
-1150 1184 0
-1151 1185 0
-1152 1186 0
-1153 1187 0
-1154 1188 0
-1155 1189 0
-1156 1190 0
-1157 1191 0
-1158 1192 0
-1159 1193 0
-1160 1194 0
-1161 1195 0
-1162 1196 0
-1163 1197 0
-1164 1198 0
-1165 1199 0
-1166 1200 0
-1167 1201 0
-1168 1202 0
-1169 1203 0
-1170 1204 0
-1171 1205 0
-1172 1206 0
-1173 1207 0
-1174 1208 0
-1175 1209 0
-1176 1210 0
-1177 1211 0
-1178 1212 0
-1179 1213 0
-1180 1214 0
-35 -1147 1182 0
-35 -1148 1183 0
-35 -1149 1184 0
-35 -1150 1185 0
-35 -1151 1186 0
-35 -1152 1187 0
-35 -1153 1188 0
-35 -1154 1189 0
-35 -1155 1190 0
-35 -1156 1191 0
-35 -1157 1192 0
-35 -1158 1193 0
-35 -1159 1194 0
-35 -1160 1195 0
-35 -1161 1196 0
-35 -1162 1197 0
-35 -1163 1198 0
-35 -1164 1199 0
-35 -1165 1200 0
-35 -1166 1201 0
-35 -1167 1202 0
-35 -1168 1203 0
-35 -1169 1204 0
-35 -1170 1205 0
-35 -1171 1206 0
-35 -1172 1207 0
-35 -1173 1208 0
-35 -1174 1209 0
-35 -1175 1210 0
-35 -1176 1211 0
-35 -1177 1212 0
-35 -1178 1213 0
-35 -1179 1214 0
-35 -1180 1215 0
-36 1216 0
-1181 1216 0
-1182 1217 0
-1183 1218 0
-1184 1219 0
-1185 1220 0
-1186 1221 0
-1187 1222 0
-1188 1223 0
-1189 1224 0
-1190 1225 0
-1191 1226 0
-1192 1227 0
-1193 1228 0
-1194 1229 0
-1195 1230 0
-1196 1231 0
-1197 1232 0
-1198 1233 0
-1199 1234 0
-1200 1235 0
-1201 1236 0
-1202 1237 0
-1203 1238 0
-1204 1239 0
-1205 1240 0
-1206 1241 0
-1207 1242 0
-1208 1243 0
-1209 1244 0
-1210 1245 0
-1211 1246 0
-1212 1247 0
-1213 1248 0
-1214 1249 0
-1215 1250 0
-36 -1181 1217 0
-36 -1182 1218 0
-36 -1183 1219 0
-36 -1184 1220 0
-36 -1185 1221 0
-36 -1186 1222 0
-36 -1187 1223 0
-36 -1188 1224 0
-36 -1189 1225 0
-36 -1190 1226 0
-36 -1191 1227 0
-36 -1192 1228 0
-36 -1193 1229 0
-36 -1194 1230 0
-36 -1195 1231 0
-36 -1196 1232 0
-36 -1197 1233 0
-36 -1198 1234 0
-36 -1199 1235 0
-36 -1200 1236 0
-36 -1201 1237 0
-36 -1202 1238 0
-36 -1203 1239 0
-36 -1204 1240 0
-36 -1205 1241 0
-36 -1206 1242 0
-36 -1207 1243 0
-36 -1208 1244 0
-36 -1209 1245 0
-36 -1210 1246 0
-36 -1211 1247 0
-36 -1212 1248 0
-36 -1213 1249 0
-36 -1214 1250 0
-36 -1215 1251 0
-37 1252 0
-1216 1252 0
-1217 1253 0
-1218 1254 0
-1219 1255 0
-1220 1256 0
-1221 1257 0
-1222 1258 0
-1223 1259 0
-1224 1260 0
-1225 1261 0
-1226 1262 0
-1227 1263 0
-1228 1264 0
-1229 1265 0
-1230 1266 0
-1231 1267 0
-1232 1268 0
-1233 1269 0
-1234 1270 0
-1235 1271 0
-1236 1272 0
-1237 1273 0
-1238 1274 0
-1239 1275 0
-1240 1276 0
-1241 1277 0
-1242 1278 0
-1243 1279 0
-1244 1280 0
-1245 1281 0
-1246 1282 0
-1247 1283 0
-1248 1284 0
-1249 1285 0
-1250 1286 0
-1251 1287 0
-37 -1216 1253 0
-37 -1217 1254 0
-37 -1218 1255 0
-37 -1219 1256 0
-37 -1220 1257 0
-37 -1221 1258 0
-37 -1222 1259 0
-37 -1223 1260 0
-37 -1224 1261 0
-37 -1225 1262 0
-37 -1226 1263 0
-37 -1227 1264 0
-37 -1228 1265 0
-37 -1229 1266 0
-37 -1230 1267 0
-37 -1231 1268 0
-37 -1232 1269 0
-37 -1233 1270 0
-37 -1234 1271 0
-37 -1235 1272 0
-37 -1236 1273 0
-37 -1237 1274 0
-37 -1238 1275 0
-37 -1239 1276 0
-37 -1240 1277 0
-37 -1241 1278 0
-37 -1242 1279 0
-37 -1243 1280 0
-37 -1244 1281 0
-37 -1245 1282 0
-37 -1246 1283 0
-37 -1247 1284 0
-37 -1248 1285 0
-37 -1249 1286 0
-37 -1250 1287 0
-37 -1251 1288 0
-38 1289 0
-1252 1289 0
-1253 1290 0
-1254 1291 0
-1255 1292 0
-1256 1293 0
-1257 1294 0
-1258 1295 0
-1259 1296 0
-1260 1297 0
-1261 1298 0
-1262 1299 0
-1263 1300 0
-1264 1301 0
-1265 1302 0
-1266 1303 0
-1267 1304 0
-1268 1305 0
-1269 1306 0
-1270 1307 0
-1271 1308 0
-1272 1309 0
-1273 1310 0
-1274 1311 0
-1275 1312 0
-1276 1313 0
-1277 1314 0
-1278 1315 0
-1279 1316 0
-1280 1317 0
-1281 1318 0
-1282 1319 0
-1283 1320 0
-1284 1321 0
-1285 1322 0
-1286 1323 0
-1287 1324 0
-1288 1325 0
-38 -1252 1290 0
-38 -1253 1291 0
-38 -1254 1292 0
-38 -1255 1293 0
-38 -1256 1294 0
-38 -1257 1295 0
-38 -1258 1296 0
-38 -1259 1297 0
-38 -1260 1298 0
-38 -1261 1299 0
-38 -1262 1300 0
-38 -1263 1301 0
-38 -1264 1302 0
-38 -1265 1303 0
-38 -1266 1304 0
-38 -1267 1305 0
-38 -1268 1306 0
-38 -1269 1307 0
-38 -1270 1308 0
-38 -1271 1309 0
-38 -1272 1310 0
-38 -1273 1311 0
-38 -1274 1312 0
-38 -1275 1313 0
-38 -1276 1314 0
-38 -1277 1315 0
-38 -1278 1316 0
-38 -1279 1317 0
-38 -1280 1318 0
-38 -1281 1319 0
-38 -1282 1320 0
-38 -1283 1321 0
-38 -1284 1322 0
-38 -1285 1323 0
-38 -1286 1324 0
-38 -1287 1325 0
-38 -1288 1326 0
-39 1327 0
-1289 1327 0
-1290 1328 0
-1291 1329 0
-1292 1330 0
-1293 1331 0
-1294 1332 0
-1295 1333 0
-1296 1334 0
-1297 1335 0
-1298 1336 0
-1299 1337 0
-1300 1338 0
-1301 1339 0
-1302 1340 0
-1303 1341 0
-1304 1342 0
-1305 1343 0
-1306 1344 0
-1307 1345 0
-1308 1346 0
-1309 1347 0
-1310 1348 0
-1311 1349 0
-1312 1350 0
-1313 1351 0
-1314 1352 0
-1315 1353 0
-1316 1354 0
-1317 1355 0
-1318 1356 0
-1319 1357 0
-1320 1358 0
-1321 1359 0
-1322 1360 0
-1323 1361 0
-1324 1362 0
-1325 1363 0
-1326 1364 0
-39 -1289 1328 0
-39 -1290 1329 0
-39 -1291 1330 0
-39 -1292 1331 0
-39 -1293 1332 0
-39 -1294 1333 0
-39 -1295 1334 0
-39 -1296 1335 0
-39 -1297 1336 0
-39 -1298 1337 0
-39 -1299 1338 0
-39 -1300 1339 0
-39 -1301 1340 0
-39 -1302 1341 0
-39 -1303 1342 0
-39 -1304 1343 0
-39 -1305 1344 0
-39 -1306 1345 0
-39 -1307 1346 0
-39 -1308 1347 0
-39 -1309 1348 0
-39 -1310 1349 0
-39 -1311 1350 0
-39 -1312 1351 0
-39 -1313 1352 0
-39 -1314 1353 0
-39 -1315 1354 0
-39 -1316 1355 0
-39 -1317 1356 0
-39 -1318 1357 0
-39 -1319 1358 0
-39 -1320 1359 0
-39 -1321 1360 0
-39 -1322 1361 0
-39 -1323 1362 0
-39 -1324 1363 0
-39 -1325 1364 0
-39 -1326 1365 0
-40 1366 0
-1327 1366 0
-1328 1367 0
-1329 1368 0
-1330 1369 0
-1331 1370 0
-1332 1371 0
-1333 1372 0
-1334 1373 0
-1335 1374 0
-1336 1375 0
-1337 1376 0
-1338 1377 0
-1339 1378 0
-1340 1379 0
-1341 1380 0
-1342 1381 0
-1343 1382 0
-1344 1383 0
-1345 1384 0
-1346 1385 0
-1347 1386 0
-1348 1387 0
-1349 1388 0
-1350 1389 0
-1351 1390 0
-1352 1391 0
-1353 1392 0
-1354 1393 0
-1355 1394 0
-1356 1395 0
-1357 1396 0
-1358 1397 0
-1359 1398 0
-1360 1399 0
-1361 1400 0
-1362 1401 0
-1363 1402 0
-1364 1403 0
-1365 1404 0
-40 -1327 1367 0
-40 -1328 1368 0
-40 -1329 1369 0
-40 -1330 1370 0
-40 -1331 1371 0
-40 -1332 1372 0
-40 -1333 1373 0
-40 -1334 1374 0
-40 -1335 1375 0
-40 -1336 1376 0
-40 -1337 1377 0
-40 -1338 1378 0
-40 -1339 1379 0
-40 -1340 1380 0
-40 -1341 1381 0
-40 -1342 1382 0
-40 -1343 1383 0
-40 -1344 1384 0
-40 -1345 1385 0
-40 -1346 1386 0
-40 -1347 1387 0
-40 -1348 1388 0
-40 -1349 1389 0
-40 -1350 1390 0
-40 -1351 1391 0
-40 -1352 1392 0
-40 -1353 1393 0
-40 -1354 1394 0
-40 -1355 1395 0
-40 -1356 1396 0
-40 -1357 1397 0
-40 -1358 1398 0
-40 -1359 1399 0
-40 -1360 1400 0
-40 -1361 1401 0
-40 -1362 1402 0
-40 -1363 1403 0
-40 -1364 1404 0
-40 -1365 1405 0
-41 1406 0
-1366 1406 0
-1367 1407 0
-1368 1408 0
-1369 1409 0
-1370 1410 0
-1371 1411 0
-1372 1412 0
-1373 1413 0
-1374 1414 0
-1375 1415 0
-1376 1416 0
-1377 1417 0
-1378 1418 0
-1379 1419 0
-1380 1420 0
-1381 1421 0
-1382 1422 0
-1383 1423 0
-1384 1424 0
-1385 1425 0
-1386 1426 0
-1387 1427 0
-1388 1428 0
-1389 1429 0
-1390 1430 0
-1391 1431 0
-1392 1432 0
-1393 1433 0
-1394 1434 0
-1395 1435 0
-1396 1436 0
-1397 1437 0
-1398 1438 0
-1399 1439 0
-1400 1440 0
-1401 1441 0
-1402 1442 0
-1403 1443 0
-1404 1444 0
-1405 1445 0
-41 -1366 1407 0
-41 -1367 1408 0
-41 -1368 1409 0
-41 -1369 1410 0
-41 -1370 1411 0
-41 -1371 1412 0
-41 -1372 1413 0
-41 -1373 1414 0
-41 -1374 1415 0
-41 -1375 1416 0
-41 -1376 1417 0
-41 -1377 1418 0
-41 -1378 1419 0
-41 -1379 1420 0
-41 -1380 1421 0
-41 -1381 1422 0
-41 -1382 1423 0
-41 -1383 1424 0
-41 -1384 1425 0
-41 -1385 1426 0
-41 -1386 1427 0
-41 -1387 1428 0
-41 -1388 1429 0
-41 -1389 1430 0
-41 -1390 1431 0
-41 -1391 1432 0
-41 -1392 1433 0
-41 -1393 1434 0
-41 -1394 1435 0
-41 -1395 1436 0
-41 -1396 1437 0
-41 -1397 1438 0
-41 -1398 1439 0
-41 -1399 1440 0
-41 -1400 1441 0
-41 -1401 1442 0
-41 -1402 1443 0
-41 -1403 1444 0
-41 -1404 1445 0
-41 -1405 1446 0
-42 1447 0
-1406 1447 0
-1407 1448 0
-1408 1449 0
-1409 1450 0
-1410 1451 0
-1411 1452 0
-1412 1453 0
-1413 1454 0
-1414 1455 0
-1415 1456 0
-1416 1457 0
-1417 1458 0
-1418 1459 0
-1419 1460 0
-1420 1461 0
-1421 1462 0
-1422 1463 0
-1423 1464 0
-1424 1465 0
-1425 1466 0
-1426 1467 0
-1427 1468 0
-1428 1469 0
-1429 1470 0
-1430 1471 0
-1431 1472 0
-1432 1473 0
-1433 1474 0
-1434 1475 0
-1435 1476 0
-1436 1477 0
-1437 1478 0
-1438 1479 0
-1439 1480 0
-1440 1481 0
-1441 1482 0
-1442 1483 0
-1443 1484 0
-1444 1485 0
-1445 1486 0
-1446 1487 0
-42 -1406 1448 0
-42 -1407 1449 0
-42 -1408 1450 0
-42 -1409 1451 0
-42 -1410 1452 0
-42 -1411 1453 0
-42 -1412 1454 0
-42 -1413 1455 0
-42 -1414 1456 0
-42 -1415 1457 0
-42 -1416 1458 0
-42 -1417 1459 0
-42 -1418 1460 0
-42 -1419 1461 0
-42 -1420 1462 0
-42 -1421 1463 0
-42 -1422 1464 0
-42 -1423 1465 0
-42 -1424 1466 0
-42 -1425 1467 0
-42 -1426 1468 0
-42 -1427 1469 0
-42 -1428 1470 0
-42 -1429 1471 0
-42 -1430 1472 0
-42 -1431 1473 0
-42 -1432 1474 0
-42 -1433 1475 0
-42 -1434 1476 0
-42 -1435 1477 0
-42 -1436 1478 0
-42 -1437 1479 0
-42 -1438 1480 0
-42 -1439 1481 0
-42 -1440 1482 0
-42 -1441 1483 0
-42 -1442 1484 0
-42 -1443 1485 0
-42 -1444 1486 0
-42 -1445 1487 0
-42 -1446 0
-43 1488 0
-1447 1488 0
-1448 1489 0
-1449 1490 0
-1450 1491 0
-1451 1492 0
-1452 1493 0
-1453 1494 0
-1454 1495 0
-1455 1496 0
-1456 1497 0
-1457 1498 0
-1458 1499 0
-1459 1500 0
-1460 1501 0
-1461 1502 0
-1462 1503 0
-1463 1504 0
-1464 1505 0
-1465 1506 0
-1466 1507 0
-1467 1508 0
-1468 1509 0
-1469 1510 0
-1470 1511 0
-1471 1512 0
-1472 1513 0
-1473 1514 0
-1474 1515 0
-1475 1516 0
-1476 1517 0
-1477 1518 0
-1478 1519 0
-1479 1520 0
-1480 1521 0
-1481 1522 0
-1482 1523 0
-1483 1524 0
-1484 1525 0
-1485 1526 0
-1486 1527 0
-1487 1528 0
-43 -1447 1489 0
-43 -1448 1490 0
-43 -1449 1491 0
-43 -1450 1492 0
-43 -1451 1493 0
-43 -1452 1494 0
-43 -1453 1495 0
-43 -1454 1496 0
-43 -1455 1497 0
-43 -1456 1498 0
-43 -1457 1499 0
-43 -1458 1500 0
-43 -1459 1501 0
-43 -1460 1502 0
-43 -1461 1503 0
-43 -1462 1504 0
-43 -1463 1505 0
-43 -1464 1506 0
-43 -1465 1507 0
-43 -1466 1508 0
-43 -1467 1509 0
-43 -1468 1510 0
-43 -1469 1511 0
-43 -1470 1512 0
-43 -1471 1513 0
-43 -1472 1514 0
-43 -1473 1515 0
-43 -1474 1516 0
-43 -1475 1517 0
-43 -1476 1518 0
-43 -1477 1519 0
-43 -1478 1520 0
-43 -1479 1521 0
-43 -1480 1522 0
-43 -1481 1523 0
-43 -1482 1524 0
-43 -1483 1525 0
-43 -1484 1526 0
-43 -1485 1527 0
-43 -1486 1528 0
-43 -1487 0
-44 1529 0
-1488 1529 0
-1489 1530 0
-1490 1531 0
-1491 1532 0
-1492 1533 0
-1493 1534 0
-1494 1535 0
-1495 1536 0
-1496 1537 0
-1497 1538 0
-1498 1539 0
-1499 1540 0
-1500 1541 0
-1501 1542 0
-1502 1543 0
-1503 1544 0
-1504 1545 0
-1505 1546 0
-1506 1547 0
-1507 1548 0
-1508 1549 0
-1509 1550 0
-1510 1551 0
-1511 1552 0
-1512 1553 0
-1513 1554 0
-1514 1555 0
-1515 1556 0
-1516 1557 0
-1517 1558 0
-1518 1559 0
-1519 1560 0
-1520 1561 0
-1521 1562 0
-1522 1563 0
-1523 1564 0
-1524 1565 0
-1525 1566 0
-1526 1567 0
-1527 1568 0
-1528 1569 0
-44 -1488 1530 0
-44 -1489 1531 0
-44 -1490 1532 0
-44 -1491 1533 0
-44 -1492 1534 0
-44 -1493 1535 0
-44 -1494 1536 0
-44 -1495 1537 0
-44 -1496 1538 0
-44 -1497 1539 0
-44 -1498 1540 0
-44 -1499 1541 0
-44 -1500 1542 0
-44 -1501 1543 0
-44 -1502 1544 0
-44 -1503 1545 0
-44 -1504 1546 0
-44 -1505 1547 0
-44 -1506 1548 0
-44 -1507 1549 0
-44 -1508 1550 0
-44 -1509 1551 0
-44 -1510 1552 0
-44 -1511 1553 0
-44 -1512 1554 0
-44 -1513 1555 0
-44 -1514 1556 0
-44 -1515 1557 0
-44 -1516 1558 0
-44 -1517 1559 0
-44 -1518 1560 0
-44 -1519 1561 0
-44 -1520 1562 0
-44 -1521 1563 0
-44 -1522 1564 0
-44 -1523 1565 0
-44 -1524 1566 0
-44 -1525 1567 0
-44 -1526 1568 0
-44 -1527 1569 0
-44 -1528 0
-45 1570 0
-1529 1570 0
-1530 1571 0
-1531 1572 0
-1532 1573 0
-1533 1574 0
-1534 1575 0
-1535 1576 0
-1536 1577 0
-1537 1578 0
-1538 1579 0
-1539 1580 0
-1540 1581 0
-1541 1582 0
-1542 1583 0
-1543 1584 0
-1544 1585 0
-1545 1586 0
-1546 1587 0
-1547 1588 0
-1548 1589 0
-1549 1590 0
-1550 1591 0
-1551 1592 0
-1552 1593 0
-1553 1594 0
-1554 1595 0
-1555 1596 0
-1556 1597 0
-1557 1598 0
-1558 1599 0
-1559 1600 0
-1560 1601 0
-1561 1602 0
-1562 1603 0
-1563 1604 0
-1564 1605 0
-1565 1606 0
-1566 1607 0
-1567 1608 0
-1568 1609 0
-1569 1610 0
-45 -1529 1571 0
-45 -1530 1572 0
-45 -1531 1573 0
-45 -1532 1574 0
-45 -1533 1575 0
-45 -1534 1576 0
-45 -1535 1577 0
-45 -1536 1578 0
-45 -1537 1579 0
-45 -1538 1580 0
-45 -1539 1581 0
-45 -1540 1582 0
-45 -1541 1583 0
-45 -1542 1584 0
-45 -1543 1585 0
-45 -1544 1586 0
-45 -1545 1587 0
-45 -1546 1588 0
-45 -1547 1589 0
-45 -1548 1590 0
-45 -1549 1591 0
-45 -1550 1592 0
-45 -1551 1593 0
-45 -1552 1594 0
-45 -1553 1595 0
-45 -1554 1596 0
-45 -1555 1597 0
-45 -1556 1598 0
-45 -1557 1599 0
-45 -1558 1600 0
-45 -1559 1601 0
-45 -1560 1602 0
-45 -1561 1603 0
-45 -1562 1604 0
-45 -1563 1605 0
-45 -1564 1606 0
-45 -1565 1607 0
-45 -1566 1608 0
-45 -1567 1609 0
-45 -1568 1610 0
-45 -1569 0
-46 1611 0
-1570 1611 0
-1571 1612 0
-1572 1613 0
-1573 1614 0
-1574 1615 0
-1575 1616 0
-1576 1617 0
-1577 1618 0
-1578 1619 0
-1579 1620 0
-1580 1621 0
-1581 1622 0
-1582 1623 0
-1583 1624 0
-1584 1625 0
-1585 1626 0
-1586 1627 0
-1587 1628 0
-1588 1629 0
-1589 1630 0
-1590 1631 0
-1591 1632 0
-1592 1633 0
-1593 1634 0
-1594 1635 0
-1595 1636 0
-1596 1637 0
-1597 1638 0
-1598 1639 0
-1599 1640 0
-1600 1641 0
-1601 1642 0
-1602 1643 0
-1603 1644 0
-1604 1645 0
-1605 1646 0
-1606 1647 0
-1607 1648 0
-1608 1649 0
-1609 1650 0
-1610 1651 0
-46 -1570 1612 0
-46 -1571 1613 0
-46 -1572 1614 0
-46 -1573 1615 0
-46 -1574 1616 0
-46 -1575 1617 0
-46 -1576 1618 0
-46 -1577 1619 0
-46 -1578 1620 0
-46 -1579 1621 0
-46 -1580 1622 0
-46 -1581 1623 0
-46 -1582 1624 0
-46 -1583 1625 0
-46 -1584 1626 0
-46 -1585 1627 0
-46 -1586 1628 0
-46 -1587 1629 0
-46 -1588 1630 0
-46 -1589 1631 0
-46 -1590 1632 0
-46 -1591 1633 0
-46 -1592 1634 0
-46 -1593 1635 0
-46 -1594 1636 0
-46 -1595 1637 0
-46 -1596 1638 0
-46 -1597 1639 0
-46 -1598 1640 0
-46 -1599 1641 0
-46 -1600 1642 0
-46 -1601 1643 0
-46 -1602 1644 0
-46 -1603 1645 0
-46 -1604 1646 0
-46 -1605 1647 0
-46 -1606 1648 0
-46 -1607 1649 0
-46 -1608 1650 0
-46 -1609 1651 0
-46 -1610 0
-47 1652 0
-1611 1652 0
-1612 1653 0
-1613 1654 0
-1614 1655 0
-1615 1656 0
-1616 1657 0
-1617 1658 0
-1618 1659 0
-1619 1660 0
-1620 1661 0
-1621 1662 0
-1622 1663 0
-1623 1664 0
-1624 1665 0
-1625 1666 0
-1626 1667 0
-1627 1668 0
-1628 1669 0
-1629 1670 0
-1630 1671 0
-1631 1672 0
-1632 1673 0
-1633 1674 0
-1634 1675 0
-1635 1676 0
-1636 1677 0
-1637 1678 0
-1638 1679 0
-1639 1680 0
-1640 1681 0
-1641 1682 0
-1642 1683 0
-1643 1684 0
-1644 1685 0
-1645 1686 0
-1646 1687 0
-1647 1688 0
-1648 1689 0
-1649 1690 0
-1650 1691 0
-1651 1692 0
-47 -1611 1653 0
-47 -1612 1654 0
-47 -1613 1655 0
-47 -1614 1656 0
-47 -1615 1657 0
-47 -1616 1658 0
-47 -1617 1659 0
-47 -1618 1660 0
-47 -1619 1661 0
-47 -1620 1662 0
-47 -1621 1663 0
-47 -1622 1664 0
-47 -1623 1665 0
-47 -1624 1666 0
-47 -1625 1667 0
-47 -1626 1668 0
-47 -1627 1669 0
-47 -1628 1670 0
-47 -1629 1671 0
-47 -1630 1672 0
-47 -1631 1673 0
-47 -1632 1674 0
-47 -1633 1675 0
-47 -1634 1676 0
-47 -1635 1677 0
-47 -1636 1678 0
-47 -1637 1679 0
-47 -1638 1680 0
-47 -1639 1681 0
-47 -1640 1682 0
-47 -1641 1683 0
-47 -1642 1684 0
-47 -1643 1685 0
-47 -1644 1686 0
-47 -1645 1687 0
-47 -1646 1688 0
-47 -1647 1689 0
-47 -1648 1690 0
-47 -1649 1691 0
-47 -1650 1692 0
-47 -1651 0
-48 1693 0
-1652 1693 0
-1653 1694 0
-1654 1695 0
-1655 1696 0
-1656 1697 0
-1657 1698 0
-1658 1699 0
-1659 1700 0
-1660 1701 0
-1661 1702 0
-1662 1703 0
-1663 1704 0
-1664 1705 0
-1665 1706 0
-1666 1707 0
-1667 1708 0
-1668 1709 0
-1669 1710 0
-1670 1711 0
-1671 1712 0
-1672 1713 0
-1673 1714 0
-1674 1715 0
-1675 1716 0
-1676 1717 0
-1677 1718 0
-1678 1719 0
-1679 1720 0
-1680 1721 0
-1681 1722 0
-1682 1723 0
-1683 1724 0
-1684 1725 0
-1685 1726 0
-1686 1727 0
-1687 1728 0
-1688 1729 0
-1689 1730 0
-1690 1731 0
-1691 1732 0
-1692 1733 0
-48 -1652 1694 0
-48 -1653 1695 0
-48 -1654 1696 0
-48 -1655 1697 0
-48 -1656 1698 0
-48 -1657 1699 0
-48 -1658 1700 0
-48 -1659 1701 0
-48 -1660 1702 0
-48 -1661 1703 0
-48 -1662 1704 0
-48 -1663 1705 0
-48 -1664 1706 0
-48 -1665 1707 0
-48 -1666 1708 0
-48 -1667 1709 0
-48 -1668 1710 0
-48 -1669 1711 0
-48 -1670 1712 0
-48 -1671 1713 0
-48 -1672 1714 0
-48 -1673 1715 0
-48 -1674 1716 0
-48 -1675 1717 0
-48 -1676 1718 0
-48 -1677 1719 0
-48 -1678 1720 0
-48 -1679 1721 0
-48 -1680 1722 0
-48 -1681 1723 0
-48 -1682 1724 0
-48 -1683 1725 0
-48 -1684 1726 0
-48 -1685 1727 0
-48 -1686 1728 0
-48 -1687 1729 0
-48 -1688 1730 0
-48 -1689 1731 0
-48 -1690 1732 0
-48 -1691 1733 0
-48 -1692 0
-49 1734 0
-1693 1734 0
-1694 1735 0
-1695 1736 0
-1696 1737 0
-1697 1738 0
-1698 1739 0
-1699 1740 0
-1700 1741 0
-1701 1742 0
-1702 1743 0
-1703 1744 0
-1704 1745 0
-1705 1746 0
-1706 1747 0
-1707 1748 0
-1708 1749 0
-1709 1750 0
-1710 1751 0
-1711 1752 0
-1712 1753 0
-1713 1754 0
-1714 1755 0
-1715 1756 0
-1716 1757 0
-1717 1758 0
-1718 1759 0
-1719 1760 0
-1720 1761 0
-1721 1762 0
-1722 1763 0
-1723 1764 0
-1724 1765 0
-1725 1766 0
-1726 1767 0
-1727 1768 0
-1728 1769 0
-1729 1770 0
-1730 1771 0
-1731 1772 0
-1732 1773 0
-1733 1774 0
-49 -1693 1735 0
-49 -1694 1736 0
-49 -1695 1737 0
-49 -1696 1738 0
-49 -1697 1739 0
-49 -1698 1740 0
-49 -1699 1741 0
-49 -1700 1742 0
-49 -1701 1743 0
-49 -1702 1744 0
-49 -1703 1745 0
-49 -1704 1746 0
-49 -1705 1747 0
-49 -1706 1748 0
-49 -1707 1749 0
-49 -1708 1750 0
-49 -1709 1751 0
-49 -1710 1752 0
-49 -1711 1753 0
-49 -1712 1754 0
-49 -1713 1755 0
-49 -1714 1756 0
-49 -1715 1757 0
-49 -1716 1758 0
-49 -1717 1759 0
-49 -1718 1760 0
-49 -1719 1761 0
-49 -1720 1762 0
-49 -1721 1763 0
-49 -1722 1764 0
-49 -1723 1765 0
-49 -1724 1766 0
-49 -1725 1767 0
-49 -1726 1768 0
-49 -1727 1769 0
-49 -1728 1770 0
-49 -1729 1771 0
-49 -1730 1772 0
-49 -1731 1773 0
-49 -1732 1774 0
-49 -1733 0
-50 1775 0
-1734 1775 0
-1735 1776 0
-1736 1777 0
-1737 1778 0
-1738 1779 0
-1739 1780 0
-1740 1781 0
-1741 1782 0
-1742 1783 0
-1743 1784 0
-1744 1785 0
-1745 1786 0
-1746 1787 0
-1747 1788 0
-1748 1789 0
-1749 1790 0
-1750 1791 0
-1751 1792 0
-1752 1793 0
-1753 1794 0
-1754 1795 0
-1755 1796 0
-1756 1797 0
-1757 1798 0
-1758 1799 0
-1759 1800 0
-1760 1801 0
-1761 1802 0
-1762 1803 0
-1763 1804 0
-1764 1805 0
-1765 1806 0
-1766 1807 0
-1767 1808 0
-1768 1809 0
-1769 1810 0
-1770 1811 0
-1771 1812 0
-1772 1813 0
-1773 1814 0
-1774 1815 0
-50 -1734 1776 0
-50 -1735 1777 0
-50 -1736 1778 0
-50 -1737 1779 0
-50 -1738 1780 0
-50 -1739 1781 0
-50 -1740 1782 0
-50 -1741 1783 0
-50 -1742 1784 0
-50 -1743 1785 0
-50 -1744 1786 0
-50 -1745 1787 0
-50 -1746 1788 0
-50 -1747 1789 0
-50 -1748 1790 0
-50 -1749 1791 0
-50 -1750 1792 0
-50 -1751 1793 0
-50 -1752 1794 0
-50 -1753 1795 0
-50 -1754 1796 0
-50 -1755 1797 0
-50 -1756 1798 0
-50 -1757 1799 0
-50 -1758 1800 0
-50 -1759 1801 0
-50 -1760 1802 0
-50 -1761 1803 0
-50 -1762 1804 0
-50 -1763 1805 0
-50 -1764 1806 0
-50 -1765 1807 0
-50 -1766 1808 0
-50 -1767 1809 0
-50 -1768 1810 0
-50 -1769 1811 0
-50 -1770 1812 0
-50 -1771 1813 0
-50 -1772 1814 0
-50 -1773 1815 0
-50 -1774 0
-51 1816 0
-1775 1816 0
-1776 1817 0
-1777 1818 0
-1778 1819 0
-1779 1820 0
-1780 1821 0
-1781 1822 0
-1782 1823 0
-1783 1824 0
-1784 1825 0
-1785 1826 0
-1786 1827 0
-1787 1828 0
-1788 1829 0
-1789 1830 0
-1790 1831 0
-1791 1832 0
-1792 1833 0
-1793 1834 0
-1794 1835 0
-1795 1836 0
-1796 1837 0
-1797 1838 0
-1798 1839 0
-1799 1840 0
-1800 1841 0
-1801 1842 0
-1802 1843 0
-1803 1844 0
-1804 1845 0
-1805 1846 0
-1806 1847 0
-1807 1848 0
-1808 1849 0
-1809 1850 0
-1810 1851 0
-1811 1852 0
-1812 1853 0
-1813 1854 0
-1814 1855 0
-1815 1856 0
-51 -1775 1817 0
-51 -1776 1818 0
-51 -1777 1819 0
-51 -1778 1820 0
-51 -1779 1821 0
-51 -1780 1822 0
-51 -1781 1823 0
-51 -1782 1824 0
-51 -1783 1825 0
-51 -1784 1826 0
-51 -1785 1827 0
-51 -1786 1828 0
-51 -1787 1829 0
-51 -1788 1830 0
-51 -1789 1831 0
-51 -1790 1832 0
-51 -1791 1833 0
-51 -1792 1834 0
-51 -1793 1835 0
-51 -1794 1836 0
-51 -1795 1837 0
-51 -1796 1838 0
-51 -1797 1839 0
-51 -1798 1840 0
-51 -1799 1841 0
-51 -1800 1842 0
-51 -1801 1843 0
-51 -1802 1844 0
-51 -1803 1845 0
-51 -1804 1846 0
-51 -1805 1847 0
-51 -1806 1848 0
-51 -1807 1849 0
-51 -1808 1850 0
-51 -1809 1851 0
-51 -1810 1852 0
-51 -1811 1853 0
-51 -1812 1854 0
-51 -1813 1855 0
-51 -1814 1856 0
-51 -1815 0
-52 1857 0
-1816 1857 0
-1817 1858 0
-1818 1859 0
-1819 1860 0
-1820 1861 0
-1821 1862 0
-1822 1863 0
-1823 1864 0
-1824 1865 0
-1825 1866 0
-1826 1867 0
-1827 1868 0
-1828 1869 0
-1829 1870 0
-1830 1871 0
-1831 1872 0
-1832 1873 0
-1833 1874 0
-1834 1875 0
-1835 1876 0
-1836 1877 0
-1837 1878 0
-1838 1879 0
-1839 1880 0
-1840 1881 0
-1841 1882 0
-1842 1883 0
-1843 1884 0
-1844 1885 0
-1845 1886 0
-1846 1887 0
-1847 1888 0
-1848 1889 0
-1849 1890 0
-1850 1891 0
-1851 1892 0
-1852 1893 0
-1853 1894 0
-1854 1895 0
-1855 1896 0
-1856 1897 0
-52 -1816 1858 0
-52 -1817 1859 0
-52 -1818 1860 0
-52 -1819 1861 0
-52 -1820 1862 0
-52 -1821 1863 0
-52 -1822 1864 0
-52 -1823 1865 0
-52 -1824 1866 0
-52 -1825 1867 0
-52 -1826 1868 0
-52 -1827 1869 0
-52 -1828 1870 0
-52 -1829 1871 0
-52 -1830 1872 0
-52 -1831 1873 0
-52 -1832 1874 0
-52 -1833 1875 0
-52 -1834 1876 0
-52 -1835 1877 0
-52 -1836 1878 0
-52 -1837 1879 0
-52 -1838 1880 0
-52 -1839 1881 0
-52 -1840 1882 0
-52 -1841 1883 0
-52 -1842 1884 0
-52 -1843 1885 0
-52 -1844 1886 0
-52 -1845 1887 0
-52 -1846 1888 0
-52 -1847 1889 0
-52 -1848 1890 0
-52 -1849 1891 0
-52 -1850 1892 0
-52 -1851 1893 0
-52 -1852 1894 0
-52 -1853 1895 0
-52 -1854 1896 0
-52 -1855 1897 0
-52 -1856 0
-53 1898 0
-1857 1898 0
-1858 1899 0
-1859 1900 0
-1860 1901 0
-1861 1902 0
-1862 1903 0
-1863 1904 0
-1864 1905 0
-1865 1906 0
-1866 1907 0
-1867 1908 0
-1868 1909 0
-1869 1910 0
-1870 1911 0
-1871 1912 0
-1872 1913 0
-1873 1914 0
-1874 1915 0
-1875 1916 0
-1876 1917 0
-1877 1918 0
-1878 1919 0
-1879 1920 0
-1880 1921 0
-1881 1922 0
-1882 1923 0
-1883 1924 0
-1884 1925 0
-1885 1926 0
-1886 1927 0
-1887 1928 0
-1888 1929 0
-1889 1930 0
-1890 1931 0
-1891 1932 0
-1892 1933 0
-1893 1934 0
-1894 1935 0
-1895 1936 0
-1896 1937 0
-1897 1938 0
-53 -1857 1899 0
-53 -1858 1900 0
-53 -1859 1901 0
-53 -1860 1902 0
-53 -1861 1903 0
-53 -1862 1904 0
-53 -1863 1905 0
-53 -1864 1906 0
-53 -1865 1907 0
-53 -1866 1908 0
-53 -1867 1909 0
-53 -1868 1910 0
-53 -1869 1911 0
-53 -1870 1912 0
-53 -1871 1913 0
-53 -1872 1914 0
-53 -1873 1915 0
-53 -1874 1916 0
-53 -1875 1917 0
-53 -1876 1918 0
-53 -1877 1919 0
-53 -1878 1920 0
-53 -1879 1921 0
-53 -1880 1922 0
-53 -1881 1923 0
-53 -1882 1924 0
-53 -1883 1925 0
-53 -1884 1926 0
-53 -1885 1927 0
-53 -1886 1928 0
-53 -1887 1929 0
-53 -1888 1930 0
-53 -1889 1931 0
-53 -1890 1932 0
-53 -1891 1933 0
-53 -1892 1934 0
-53 -1893 1935 0
-53 -1894 1936 0
-53 -1895 1937 0
-53 -1896 1938 0
-53 -1897 0
-54 1939 0
-1898 1939 0
-1899 1940 0
-1900 1941 0
-1901 1942 0
-1902 1943 0
-1903 1944 0
-1904 1945 0
-1905 1946 0
-1906 1947 0
-1907 1948 0
-1908 1949 0
-1909 1950 0
-1910 1951 0
-1911 1952 0
-1912 1953 0
-1913 1954 0
-1914 1955 0
-1915 1956 0
-1916 1957 0
-1917 1958 0
-1918 1959 0
-1919 1960 0
-1920 1961 0
-1921 1962 0
-1922 1963 0
-1923 1964 0
-1924 1965 0
-1925 1966 0
-1926 1967 0
-1927 1968 0
-1928 1969 0
-1929 1970 0
-1930 1971 0
-1931 1972 0
-1932 1973 0
-1933 1974 0
-1934 1975 0
-1935 1976 0
-1936 1977 0
-1937 1978 0
-1938 1979 0
-54 -1898 1940 0
-54 -1899 1941 0
-54 -1900 1942 0
-54 -1901 1943 0
-54 -1902 1944 0
-54 -1903 1945 0
-54 -1904 1946 0
-54 -1905 1947 0
-54 -1906 1948 0
-54 -1907 1949 0
-54 -1908 1950 0
-54 -1909 1951 0
-54 -1910 1952 0
-54 -1911 1953 0
-54 -1912 1954 0
-54 -1913 1955 0
-54 -1914 1956 0
-54 -1915 1957 0
-54 -1916 1958 0
-54 -1917 1959 0
-54 -1918 1960 0
-54 -1919 1961 0
-54 -1920 1962 0
-54 -1921 1963 0
-54 -1922 1964 0
-54 -1923 1965 0
-54 -1924 1966 0
-54 -1925 1967 0
-54 -1926 1968 0
-54 -1927 1969 0
-54 -1928 1970 0
-54 -1929 1971 0
-54 -1930 1972 0
-54 -1931 1973 0
-54 -1932 1974 0
-54 -1933 1975 0
-54 -1934 1976 0
-54 -1935 1977 0
-54 -1936 1978 0
-54 -1937 1979 0
-54 -1938 0
-55 1980 0
-1939 1980 0
-1940 1981 0
-1941 1982 0
-1942 1983 0
-1943 1984 0
-1944 1985 0
-1945 1986 0
-1946 1987 0
-1947 1988 0
-1948 1989 0
-1949 1990 0
-1950 1991 0
-1951 1992 0
-1952 1993 0
-1953 1994 0
-1954 1995 0
-1955 1996 0
-1956 1997 0
-1957 1998 0
-1958 1999 0
-1959 2000 0
-1960 2001 0
-1961 2002 0
-1962 2003 0
-1963 2004 0
-1964 2005 0
-1965 2006 0
-1966 2007 0
-1967 2008 0
-1968 2009 0
-1969 2010 0
-1970 2011 0
-1971 2012 0
-1972 2013 0
-1973 2014 0
-1974 2015 0
-1975 2016 0
-1976 2017 0
-1977 2018 0
-1978 2019 0
-1979 2020 0
-55 -1939 1981 0
-55 -1940 1982 0
-55 -1941 1983 0
-55 -1942 1984 0
-55 -1943 1985 0
-55 -1944 1986 0
-55 -1945 1987 0
-55 -1946 1988 0
-55 -1947 1989 0
-55 -1948 1990 0
-55 -1949 1991 0
-55 -1950 1992 0
-55 -1951 1993 0
-55 -1952 1994 0
-55 -1953 1995 0
-55 -1954 1996 0
-55 -1955 1997 0
-55 -1956 1998 0
-55 -1957 1999 0
-55 -1958 2000 0
-55 -1959 2001 0
-55 -1960 2002 0
-55 -1961 2003 0
-55 -1962 2004 0
-55 -1963 2005 0
-55 -1964 2006 0
-55 -1965 2007 0
-55 -1966 2008 0
-55 -1967 2009 0
-55 -1968 2010 0
-55 -1969 2011 0
-55 -1970 2012 0
-55 -1971 2013 0
-55 -1972 2014 0
-55 -1973 2015 0
-55 -1974 2016 0
-55 -1975 2017 0
-55 -1976 2018 0
-55 -1977 2019 0
-55 -1978 2020 0
-55 -1979 0
-56 2021 0
-1980 2021 0
-1981 2022 0
-1982 2023 0
-1983 2024 0
-1984 2025 0
-1985 2026 0
-1986 2027 0
-1987 2028 0
-1988 2029 0
-1989 2030 0
-1990 2031 0
-1991 2032 0
-1992 2033 0
-1993 2034 0
-1994 2035 0
-1995 2036 0
-1996 2037 0
-1997 2038 0
-1998 2039 0
-1999 2040 0
-2000 2041 0
-2001 2042 0
-2002 2043 0
-2003 2044 0
-2004 2045 0
-2005 2046 0
-2006 2047 0
-2007 2048 0
-2008 2049 0
-2009 2050 0
-2010 2051 0
-2011 2052 0
-2012 2053 0
-2013 2054 0
-2014 2055 0
-2015 2056 0
-2016 2057 0
-2017 2058 0
-2018 2059 0
-2019 2060 0
-2020 2061 0
-56 -1980 2022 0
-56 -1981 2023 0
-56 -1982 2024 0
-56 -1983 2025 0
-56 -1984 2026 0
-56 -1985 2027 0
-56 -1986 2028 0
-56 -1987 2029 0
-56 -1988 2030 0
-56 -1989 2031 0
-56 -1990 2032 0
-56 -1991 2033 0
-56 -1992 2034 0
-56 -1993 2035 0
-56 -1994 2036 0
-56 -1995 2037 0
-56 -1996 2038 0
-56 -1997 2039 0
-56 -1998 2040 0
-56 -1999 2041 0
-56 -2000 2042 0
-56 -2001 2043 0
-56 -2002 2044 0
-56 -2003 2045 0
-56 -2004 2046 0
-56 -2005 2047 0
-56 -2006 2048 0
-56 -2007 2049 0
-56 -2008 2050 0
-56 -2009 2051 0
-56 -2010 2052 0
-56 -2011 2053 0
-56 -2012 2054 0
-56 -2013 2055 0
-56 -2014 2056 0
-56 -2015 2057 0
-56 -2016 2058 0
-56 -2017 2059 0
-56 -2018 2060 0
-56 -2019 2061 0
-56 -2020 0
-57 2062 0
-2021 2062 0
-2022 2063 0
-2023 2064 0
-2024 2065 0
-2025 2066 0
-2026 2067 0
-2027 2068 0
-2028 2069 0
-2029 2070 0
-2030 2071 0
-2031 2072 0
-2032 2073 0
-2033 2074 0
-2034 2075 0
-2035 2076 0
-2036 2077 0
-2037 2078 0
-2038 2079 0
-2039 2080 0
-2040 2081 0
-2041 2082 0
-2042 2083 0
-2043 2084 0
-2044 2085 0
-2045 2086 0
-2046 2087 0
-2047 2088 0
-2048 2089 0
-2049 2090 0
-2050 2091 0
-2051 2092 0
-2052 2093 0
-2053 2094 0
-2054 2095 0
-2055 2096 0
-2056 2097 0
-2057 2098 0
-2058 2099 0
-2059 2100 0
-2060 2101 0
-2061 2102 0
-57 -2021 2063 0
-57 -2022 2064 0
-57 -2023 2065 0
-57 -2024 2066 0
-57 -2025 2067 0
-57 -2026 2068 0
-57 -2027 2069 0
-57 -2028 2070 0
-57 -2029 2071 0
-57 -2030 2072 0
-57 -2031 2073 0
-57 -2032 2074 0
-57 -2033 2075 0
-57 -2034 2076 0
-57 -2035 2077 0
-57 -2036 2078 0
-57 -2037 2079 0
-57 -2038 2080 0
-57 -2039 2081 0
-57 -2040 2082 0
-57 -2041 2083 0
-57 -2042 2084 0
-57 -2043 2085 0
-57 -2044 2086 0
-57 -2045 2087 0
-57 -2046 2088 0
-57 -2047 2089 0
-57 -2048 2090 0
-57 -2049 2091 0
-57 -2050 2092 0
-57 -2051 2093 0
-57 -2052 2094 0
-57 -2053 2095 0
-57 -2054 2096 0
-57 -2055 2097 0
-57 -2056 2098 0
-57 -2057 2099 0
-57 -2058 2100 0
-57 -2059 2101 0
-57 -2060 2102 0
-57 -2061 0
-58 2103 0
-2062 2103 0
-2063 2104 0
-2064 2105 0
-2065 2106 0
-2066 2107 0
-2067 2108 0
-2068 2109 0
-2069 2110 0
-2070 2111 0
-2071 2112 0
-2072 2113 0
-2073 2114 0
-2074 2115 0
-2075 2116 0
-2076 2117 0
-2077 2118 0
-2078 2119 0
-2079 2120 0
-2080 2121 0
-2081 2122 0
-2082 2123 0
-2083 2124 0
-2084 2125 0
-2085 2126 0
-2086 2127 0
-2087 2128 0
-2088 2129 0
-2089 2130 0
-2090 2131 0
-2091 2132 0
-2092 2133 0
-2093 2134 0
-2094 2135 0
-2095 2136 0
-2096 2137 0
-2097 2138 0
-2098 2139 0
-2099 2140 0
-2100 2141 0
-2101 2142 0
-2102 2143 0
-58 -2062 2104 0
-58 -2063 2105 0
-58 -2064 2106 0
-58 -2065 2107 0
-58 -2066 2108 0
-58 -2067 2109 0
-58 -2068 2110 0
-58 -2069 2111 0
-58 -2070 2112 0
-58 -2071 2113 0
-58 -2072 2114 0
-58 -2073 2115 0
-58 -2074 2116 0
-58 -2075 2117 0
-58 -2076 2118 0
-58 -2077 2119 0
-58 -2078 2120 0
-58 -2079 2121 0
-58 -2080 2122 0
-58 -2081 2123 0
-58 -2082 2124 0
-58 -2083 2125 0
-58 -2084 2126 0
-58 -2085 2127 0
-58 -2086 2128 0
-58 -2087 2129 0
-58 -2088 2130 0
-58 -2089 2131 0
-58 -2090 2132 0
-58 -2091 2133 0
-58 -2092 2134 0
-58 -2093 2135 0
-58 -2094 2136 0
-58 -2095 2137 0
-58 -2096 2138 0
-58 -2097 2139 0
-58 -2098 2140 0
-58 -2099 2141 0
-58 -2100 2142 0
-58 -2101 2143 0
-58 -2102 0
-59 2144 0
-2103 2144 0
-2104 2145 0
-2105 2146 0
-2106 2147 0
-2107 2148 0
-2108 2149 0
-2109 2150 0
-2110 2151 0
-2111 2152 0
-2112 2153 0
-2113 2154 0
-2114 2155 0
-2115 2156 0
-2116 2157 0
-2117 2158 0
-2118 2159 0
-2119 2160 0
-2120 2161 0
-2121 2162 0
-2122 2163 0
-2123 2164 0
-2124 2165 0
-2125 2166 0
-2126 2167 0
-2127 2168 0
-2128 2169 0
-2129 2170 0
-2130 2171 0
-2131 2172 0
-2132 2173 0
-2133 2174 0
-2134 2175 0
-2135 2176 0
-2136 2177 0
-2137 2178 0
-2138 2179 0
-2139 2180 0
-2140 2181 0
-2141 2182 0
-2142 2183 0
-2143 2184 0
-59 -2103 2145 0
-59 -2104 2146 0
-59 -2105 2147 0
-59 -2106 2148 0
-59 -2107 2149 0
-59 -2108 2150 0
-59 -2109 2151 0
-59 -2110 2152 0
-59 -2111 2153 0
-59 -2112 2154 0
-59 -2113 2155 0
-59 -2114 2156 0
-59 -2115 2157 0
-59 -2116 2158 0
-59 -2117 2159 0
-59 -2118 2160 0
-59 -2119 2161 0
-59 -2120 2162 0
-59 -2121 2163 0
-59 -2122 2164 0
-59 -2123 2165 0
-59 -2124 2166 0
-59 -2125 2167 0
-59 -2126 2168 0
-59 -2127 2169 0
-59 -2128 2170 0
-59 -2129 2171 0
-59 -2130 2172 0
-59 -2131 2173 0
-59 -2132 2174 0
-59 -2133 2175 0
-59 -2134 2176 0
-59 -2135 2177 0
-59 -2136 2178 0
-59 -2137 2179 0
-59 -2138 2180 0
-59 -2139 2181 0
-59 -2140 2182 0
-59 -2141 2183 0
-59 -2142 2184 0
-59 -2143 0
-60 2185 0
-2144 2185 0
-2145 2186 0
-2146 2187 0
-2147 2188 0
-2148 2189 0
-2149 2190 0
-2150 2191 0
-2151 2192 0
-2152 2193 0
-2153 2194 0
-2154 2195 0
-2155 2196 0
-2156 2197 0
-2157 2198 0
-2158 2199 0
-2159 2200 0
-2160 2201 0
-2161 2202 0
-2162 2203 0
-2163 2204 0
-2164 2205 0
-2165 2206 0
-2166 2207 0
-2167 2208 0
-2168 2209 0
-2169 2210 0
-2170 2211 0
-2171 2212 0
-2172 2213 0
-2173 2214 0
-2174 2215 0
-2175 2216 0
-2176 2217 0
-2177 2218 0
-2178 2219 0
-2179 2220 0
-2180 2221 0
-2181 2222 0
-2182 2223 0
-2183 2224 0
-2184 2225 0
-60 -2144 2186 0
-60 -2145 2187 0
-60 -2146 2188 0
-60 -2147 2189 0
-60 -2148 2190 0
-60 -2149 2191 0
-60 -2150 2192 0
-60 -2151 2193 0
-60 -2152 2194 0
-60 -2153 2195 0
-60 -2154 2196 0
-60 -2155 2197 0
-60 -2156 2198 0
-60 -2157 2199 0
-60 -2158 2200 0
-60 -2159 2201 0
-60 -2160 2202 0
-60 -2161 2203 0
-60 -2162 2204 0
-60 -2163 2205 0
-60 -2164 2206 0
-60 -2165 2207 0
-60 -2166 2208 0
-60 -2167 2209 0
-60 -2168 2210 0
-60 -2169 2211 0
-60 -2170 2212 0
-60 -2171 2213 0
-60 -2172 2214 0
-60 -2173 2215 0
-60 -2174 2216 0
-60 -2175 2217 0
-60 -2176 2218 0
-60 -2177 2219 0
-60 -2178 2220 0
-60 -2179 2221 0
-60 -2180 2222 0
-60 -2181 2223 0
-60 -2182 2224 0
-60 -2183 2225 0
-60 -2184 0
-61 2226 0
-2185 2226 0
-2186 2227 0
-2187 2228 0
-2188 2229 0
-2189 2230 0
-2190 2231 0
-2191 2232 0
-2192 2233 0
-2193 2234 0
-2194 2235 0
-2195 2236 0
-2196 2237 0
-2197 2238 0
-2198 2239 0
-2199 2240 0
-2200 2241 0
-2201 2242 0
-2202 2243 0
-2203 2244 0
-2204 2245 0
-2205 2246 0
-2206 2247 0
-2207 2248 0
-2208 2249 0
-2209 2250 0
-2210 2251 0
-2211 2252 0
-2212 2253 0
-2213 2254 0
-2214 2255 0
-2215 2256 0
-2216 2257 0
-2217 2258 0
-2218 2259 0
-2219 2260 0
-2220 2261 0
-2221 2262 0
-2222 2263 0
-2223 2264 0
-2224 2265 0
-2225 2266 0
-61 -2185 2227 0
-61 -2186 2228 0
-61 -2187 2229 0
-61 -2188 2230 0
-61 -2189 2231 0
-61 -2190 2232 0
-61 -2191 2233 0
-61 -2192 2234 0
-61 -2193 2235 0
-61 -2194 2236 0
-61 -2195 2237 0
-61 -2196 2238 0
-61 -2197 2239 0
-61 -2198 2240 0
-61 -2199 2241 0
-61 -2200 2242 0
-61 -2201 2243 0
-61 -2202 2244 0
-61 -2203 2245 0
-61 -2204 2246 0
-61 -2205 2247 0
-61 -2206 2248 0
-61 -2207 2249 0
-61 -2208 2250 0
-61 -2209 2251 0
-61 -2210 2252 0
-61 -2211 2253 0
-61 -2212 2254 0
-61 -2213 2255 0
-61 -2214 2256 0
-61 -2215 2257 0
-61 -2216 2258 0
-61 -2217 2259 0
-61 -2218 2260 0
-61 -2219 2261 0
-61 -2220 2262 0
-61 -2221 2263 0
-61 -2222 2264 0
-61 -2223 2265 0
-61 -2224 2266 0
-61 -2225 0
-62 2267 0
-2226 2267 0
-2227 2268 0
-2228 2269 0
-2229 2270 0
-2230 2271 0
-2231 2272 0
-2232 2273 0
-2233 2274 0
-2234 2275 0
-2235 2276 0
-2236 2277 0
-2237 2278 0
-2238 2279 0
-2239 2280 0
-2240 2281 0
-2241 2282 0
-2242 2283 0
-2243 2284 0
-2244 2285 0
-2245 2286 0
-2246 2287 0
-2247 2288 0
-2248 2289 0
-2249 2290 0
-2250 2291 0
-2251 2292 0
-2252 2293 0
-2253 2294 0
-2254 2295 0
-2255 2296 0
-2256 2297 0
-2257 2298 0
-2258 2299 0
-2259 2300 0
-2260 2301 0
-2261 2302 0
-2262 2303 0
-2263 2304 0
-2264 2305 0
-2265 2306 0
-2266 2307 0
-62 -2226 2268 0
-62 -2227 2269 0
-62 -2228 2270 0
-62 -2229 2271 0
-62 -2230 2272 0
-62 -2231 2273 0
-62 -2232 2274 0
-62 -2233 2275 0
-62 -2234 2276 0
-62 -2235 2277 0
-62 -2236 2278 0
-62 -2237 2279 0
-62 -2238 2280 0
-62 -2239 2281 0
-62 -2240 2282 0
-62 -2241 2283 0
-62 -2242 2284 0
-62 -2243 2285 0
-62 -2244 2286 0
-62 -2245 2287 0
-62 -2246 2288 0
-62 -2247 2289 0
-62 -2248 2290 0
-62 -2249 2291 0
-62 -2250 2292 0
-62 -2251 2293 0
-62 -2252 2294 0
-62 -2253 2295 0
-62 -2254 2296 0
-62 -2255 2297 0
-62 -2256 2298 0
-62 -2257 2299 0
-62 -2258 2300 0
-62 -2259 2301 0
-62 -2260 2302 0
-62 -2261 2303 0
-62 -2262 2304 0
-62 -2263 2305 0
-62 -2264 2306 0
-62 -2265 2307 0
-62 -2266 0
-63 2308 0
-2267 2308 0
-2268 2309 0
-2269 2310 0
-2270 2311 0
-2271 2312 0
-2272 2313 0
-2273 2314 0
-2274 2315 0
-2275 2316 0
-2276 2317 0
-2277 2318 0
-2278 2319 0
-2279 2320 0
-2280 2321 0
-2281 2322 0
-2282 2323 0
-2283 2324 0
-2284 2325 0
-2285 2326 0
-2286 2327 0
-2287 2328 0
-2288 2329 0
-2289 2330 0
-2290 2331 0
-2291 2332 0
-2292 2333 0
-2293 2334 0
-2294 2335 0
-2295 2336 0
-2296 2337 0
-2297 2338 0
-2298 2339 0
-2299 2340 0
-2300 2341 0
-2301 2342 0
-2302 2343 0
-2303 2344 0
-2304 2345 0
-2305 2346 0
-2306 2347 0
-2307 2348 0
-63 -2267 2309 0
-63 -2268 2310 0
-63 -2269 2311 0
-63 -2270 2312 0
-63 -2271 2313 0
-63 -2272 2314 0
-63 -2273 2315 0
-63 -2274 2316 0
-63 -2275 2317 0
-63 -2276 2318 0
-63 -2277 2319 0
-63 -2278 2320 0
-63 -2279 2321 0
-63 -2280 2322 0
-63 -2281 2323 0
-63 -2282 2324 0
-63 -2283 2325 0
-63 -2284 2326 0
-63 -2285 2327 0
-63 -2286 2328 0
-63 -2287 2329 0
-63 -2288 2330 0
-63 -2289 2331 0
-63 -2290 2332 0
-63 -2291 2333 0
-63 -2292 2334 0
-63 -2293 2335 0
-63 -2294 2336 0
-63 -2295 2337 0
-63 -2296 2338 0
-63 -2297 2339 0
-63 -2298 2340 0
-63 -2299 2341 0
-63 -2300 2342 0
-63 -2301 2343 0
-63 -2302 2344 0
-63 -2303 2345 0
-63 -2304 2346 0
-63 -2305 2347 0
-63 -2306 2348 0
-63 -2307 0
-64 2349 0
-2308 2349 0
-2309 2350 0
-2310 2351 0
-2311 2352 0
-2312 2353 0
-2313 2354 0
-2314 2355 0
-2315 2356 0
-2316 2357 0
-2317 2358 0
-2318 2359 0
-2319 2360 0
-2320 2361 0
-2321 2362 0
-2322 2363 0
-2323 2364 0
-2324 2365 0
-2325 2366 0
-2326 2367 0
-2327 2368 0
-2328 2369 0
-2329 2370 0
-2330 2371 0
-2331 2372 0
-2332 2373 0
-2333 2374 0
-2334 2375 0
-2335 2376 0
-2336 2377 0
-2337 2378 0
-2338 2379 0
-2339 2380 0
-2340 2381 0
-2341 2382 0
-2342 2383 0
-2343 2384 0
-2344 2385 0
-2345 2386 0
-2346 2387 0
-2347 2388 0
-2348 2389 0
-64 -2308 2350 0
-64 -2309 2351 0
-64 -2310 2352 0
-64 -2311 2353 0
-64 -2312 2354 0
-64 -2313 2355 0
-64 -2314 2356 0
-64 -2315 2357 0
-64 -2316 2358 0
-64 -2317 2359 0
-64 -2318 2360 0
-64 -2319 2361 0
-64 -2320 2362 0
-64 -2321 2363 0
-64 -2322 2364 0
-64 -2323 2365 0
-64 -2324 2366 0
-64 -2325 2367 0
-64 -2326 2368 0
-64 -2327 2369 0
-64 -2328 2370 0
-64 -2329 2371 0
-64 -2330 2372 0
-64 -2331 2373 0
-64 -2332 2374 0
-64 -2333 2375 0
-64 -2334 2376 0
-64 -2335 2377 0
-64 -2336 2378 0
-64 -2337 2379 0
-64 -2338 2380 0
-64 -2339 2381 0
-64 -2340 2382 0
-64 -2341 2383 0
-64 -2342 2384 0
-64 -2343 2385 0
-64 -2344 2386 0
-64 -2345 2387 0
-64 -2346 2388 0
-64 -2347 2389 0
-64 -2348 0
-65 2390 0
-2349 2390 0
-2350 2391 0
-2351 2392 0
-2352 2393 0
-2353 2394 0
-2354 2395 0
-2355 2396 0
-2356 2397 0
-2357 2398 0
-2358 2399 0
-2359 2400 0
-2360 2401 0
-2361 2402 0
-2362 2403 0
-2363 2404 0
-2364 2405 0
-2365 2406 0
-2366 2407 0
-2367 2408 0
-2368 2409 0
-2369 2410 0
-2370 2411 0
-2371 2412 0
-2372 2413 0
-2373 2414 0
-2374 2415 0
-2375 2416 0
-2376 2417 0
-2377 2418 0
-2378 2419 0
-2379 2420 0
-2380 2421 0
-2381 2422 0
-2382 2423 0
-2383 2424 0
-2384 2425 0
-2385 2426 0
-2386 2427 0
-2387 2428 0
-2388 2429 0
-2389 2430 0
-65 -2349 2391 0
-65 -2350 2392 0
-65 -2351 2393 0
-65 -2352 2394 0
-65 -2353 2395 0
-65 -2354 2396 0
-65 -2355 2397 0
-65 -2356 2398 0
-65 -2357 2399 0
-65 -2358 2400 0
-65 -2359 2401 0
-65 -2360 2402 0
-65 -2361 2403 0
-65 -2362 2404 0
-65 -2363 2405 0
-65 -2364 2406 0
-65 -2365 2407 0
-65 -2366 2408 0
-65 -2367 2409 0
-65 -2368 2410 0
-65 -2369 2411 0
-65 -2370 2412 0
-65 -2371 2413 0
-65 -2372 2414 0
-65 -2373 2415 0
-65 -2374 2416 0
-65 -2375 2417 0
-65 -2376 2418 0
-65 -2377 2419 0
-65 -2378 2420 0
-65 -2379 2421 0
-65 -2380 2422 0
-65 -2381 2423 0
-65 -2382 2424 0
-65 -2383 2425 0
-65 -2384 2426 0
-65 -2385 2427 0
-65 -2386 2428 0
-65 -2387 2429 0
-65 -2388 2430 0
-65 -2389 0
-66 2431 0
-2390 2431 0
-2391 2432 0
-2392 2433 0
-2393 2434 0
-2394 2435 0
-2395 2436 0
-2396 2437 0
-2397 2438 0
-2398 2439 0
-2399 2440 0
-2400 2441 0
-2401 2442 0
-2402 2443 0
-2403 2444 0
-2404 2445 0
-2405 2446 0
-2406 2447 0
-2407 2448 0
-2408 2449 0
-2409 2450 0
-2410 2451 0
-2411 2452 0
-2412 2453 0
-2413 2454 0
-2414 2455 0
-2415 2456 0
-2416 2457 0
-2417 2458 0
-2418 2459 0
-2419 2460 0
-2420 2461 0
-2421 2462 0
-2422 2463 0
-2423 2464 0
-2424 2465 0
-2425 2466 0
-2426 2467 0
-2427 2468 0
-2428 2469 0
-2429 2470 0
-2430 2471 0
-66 -2390 2432 0
-66 -2391 2433 0
-66 -2392 2434 0
-66 -2393 2435 0
-66 -2394 2436 0
-66 -2395 2437 0
-66 -2396 2438 0
-66 -2397 2439 0
-66 -2398 2440 0
-66 -2399 2441 0
-66 -2400 2442 0
-66 -2401 2443 0
-66 -2402 2444 0
-66 -2403 2445 0
-66 -2404 2446 0
-66 -2405 2447 0
-66 -2406 2448 0
-66 -2407 2449 0
-66 -2408 2450 0
-66 -2409 2451 0
-66 -2410 2452 0
-66 -2411 2453 0
-66 -2412 2454 0
-66 -2413 2455 0
-66 -2414 2456 0
-66 -2415 2457 0
-66 -2416 2458 0
-66 -2417 2459 0
-66 -2418 2460 0
-66 -2419 2461 0
-66 -2420 2462 0
-66 -2421 2463 0
-66 -2422 2464 0
-66 -2423 2465 0
-66 -2424 2466 0
-66 -2425 2467 0
-66 -2426 2468 0
-66 -2427 2469 0
-66 -2428 2470 0
-66 -2429 2471 0
-66 -2430 0
-67 2472 0
-2431 2472 0
-2432 2473 0
-2433 2474 0
-2434 2475 0
-2435 2476 0
-2436 2477 0
-2437 2478 0
-2438 2479 0
-2439 2480 0
-2440 2481 0
-2441 2482 0
-2442 2483 0
-2443 2484 0
-2444 2485 0
-2445 2486 0
-2446 2487 0
-2447 2488 0
-2448 2489 0
-2449 2490 0
-2450 2491 0
-2451 2492 0
-2452 2493 0
-2453 2494 0
-2454 2495 0
-2455 2496 0
-2456 2497 0
-2457 2498 0
-2458 2499 0
-2459 2500 0
-2460 2501 0
-2461 2502 0
-2462 2503 0
-2463 2504 0
-2464 2505 0
-2465 2506 0
-2466 2507 0
-2467 2508 0
-2468 2509 0
-2469 2510 0
-2470 2511 0
-2471 2512 0
-67 -2431 2473 0
-67 -2432 2474 0
-67 -2433 2475 0
-67 -2434 2476 0
-67 -2435 2477 0
-67 -2436 2478 0
-67 -2437 2479 0
-67 -2438 2480 0
-67 -2439 2481 0
-67 -2440 2482 0
-67 -2441 2483 0
-67 -2442 2484 0
-67 -2443 2485 0
-67 -2444 2486 0
-67 -2445 2487 0
-67 -2446 2488 0
-67 -2447 2489 0
-67 -2448 2490 0
-67 -2449 2491 0
-67 -2450 2492 0
-67 -2451 2493 0
-67 -2452 2494 0
-67 -2453 2495 0
-67 -2454 2496 0
-67 -2455 2497 0
-67 -2456 2498 0
-67 -2457 2499 0
-67 -2458 2500 0
-67 -2459 2501 0
-67 -2460 2502 0
-67 -2461 2503 0
-67 -2462 2504 0
-67 -2463 2505 0
-67 -2464 2506 0
-67 -2465 2507 0
-67 -2466 2508 0
-67 -2467 2509 0
-67 -2468 2510 0
-67 -2469 2511 0
-67 -2470 2512 0
-67 -2471 0
-68 2513 0
-2472 2513 0
-2473 2514 0
-2474 2515 0
-2475 2516 0
-2476 2517 0
-2477 2518 0
-2478 2519 0
-2479 2520 0
-2480 2521 0
-2481 2522 0
-2482 2523 0
-2483 2524 0
-2484 2525 0
-2485 2526 0
-2486 2527 0
-2487 2528 0
-2488 2529 0
-2489 2530 0
-2490 2531 0
-2491 2532 0
-2492 2533 0
-2493 2534 0
-2494 2535 0
-2495 2536 0
-2496 2537 0
-2497 2538 0
-2498 2539 0
-2499 2540 0
-2500 2541 0
-2501 2542 0
-2502 2543 0
-2503 2544 0
-2504 2545 0
-2505 2546 0
-2506 2547 0
-2507 2548 0
-2508 2549 0
-2509 2550 0
-2510 2551 0
-2511 2552 0
-2512 2553 0
-68 -2472 2514 0
-68 -2473 2515 0
-68 -2474 2516 0
-68 -2475 2517 0
-68 -2476 2518 0
-68 -2477 2519 0
-68 -2478 2520 0
-68 -2479 2521 0
-68 -2480 2522 0
-68 -2481 2523 0
-68 -2482 2524 0
-68 -2483 2525 0
-68 -2484 2526 0
-68 -2485 2527 0
-68 -2486 2528 0
-68 -2487 2529 0
-68 -2488 2530 0
-68 -2489 2531 0
-68 -2490 2532 0
-68 -2491 2533 0
-68 -2492 2534 0
-68 -2493 2535 0
-68 -2494 2536 0
-68 -2495 2537 0
-68 -2496 2538 0
-68 -2497 2539 0
-68 -2498 2540 0
-68 -2499 2541 0
-68 -2500 2542 0
-68 -2501 2543 0
-68 -2502 2544 0
-68 -2503 2545 0
-68 -2504 2546 0
-68 -2505 2547 0
-68 -2506 2548 0
-68 -2507 2549 0
-68 -2508 2550 0
-68 -2509 2551 0
-68 -2510 2552 0
-68 -2511 2553 0
-68 -2512 0
-69 2554 0
-2513 2554 0
-2514 2555 0
-2515 2556 0
-2516 2557 0
-2517 2558 0
-2518 2559 0
-2519 2560 0
-2520 2561 0
-2521 2562 0
-2522 2563 0
-2523 2564 0
-2524 2565 0
-2525 2566 0
-2526 2567 0
-2527 2568 0
-2528 2569 0
-2529 2570 0
-2530 2571 0
-2531 2572 0
-2532 2573 0
-2533 2574 0
-2534 2575 0
-2535 2576 0
-2536 2577 0
-2537 2578 0
-2538 2579 0
-2539 2580 0
-2540 2581 0
-2541 2582 0
-2542 2583 0
-2543 2584 0
-2544 2585 0
-2545 2586 0
-2546 2587 0
-2547 2588 0
-2548 2589 0
-2549 2590 0
-2550 2591 0
-2551 2592 0
-2552 2593 0
-2553 2594 0
-69 -2513 2555 0
-69 -2514 2556 0
-69 -2515 2557 0
-69 -2516 2558 0
-69 -2517 2559 0
-69 -2518 2560 0
-69 -2519 2561 0
-69 -2520 2562 0
-69 -2521 2563 0
-69 -2522 2564 0
-69 -2523 2565 0
-69 -2524 2566 0
-69 -2525 2567 0
-69 -2526 2568 0
-69 -2527 2569 0
-69 -2528 2570 0
-69 -2529 2571 0
-69 -2530 2572 0
-69 -2531 2573 0
-69 -2532 2574 0
-69 -2533 2575 0
-69 -2534 2576 0
-69 -2535 2577 0
-69 -2536 2578 0
-69 -2537 2579 0
-69 -2538 2580 0
-69 -2539 2581 0
-69 -2540 2582 0
-69 -2541 2583 0
-69 -2542 2584 0
-69 -2543 2585 0
-69 -2544 2586 0
-69 -2545 2587 0
-69 -2546 2588 0
-69 -2547 2589 0
-69 -2548 2590 0
-69 -2549 2591 0
-69 -2550 2592 0
-69 -2551 2593 0
-69 -2552 2594 0
-69 -2553 0
-70 2595 0
-2554 2595 0
-2555 2596 0
-2556 2597 0
-2557 2598 0
-2558 2599 0
-2559 2600 0
-2560 2601 0
-2561 2602 0
-2562 2603 0
-2563 2604 0
-2564 2605 0
-2565 2606 0
-2566 2607 0
-2567 2608 0
-2568 2609 0
-2569 2610 0
-2570 2611 0
-2571 2612 0
-2572 2613 0
-2573 2614 0
-2574 2615 0
-2575 2616 0
-2576 2617 0
-2577 2618 0
-2578 2619 0
-2579 2620 0
-2580 2621 0
-2581 2622 0
-2582 2623 0
-2583 2624 0
-2584 2625 0
-2585 2626 0
-2586 2627 0
-2587 2628 0
-2588 2629 0
-2589 2630 0
-2590 2631 0
-2591 2632 0
-2592 2633 0
-2593 2634 0
-2594 2635 0
-70 -2554 2596 0
-70 -2555 2597 0
-70 -2556 2598 0
-70 -2557 2599 0
-70 -2558 2600 0
-70 -2559 2601 0
-70 -2560 2602 0
-70 -2561 2603 0
-70 -2562 2604 0
-70 -2563 2605 0
-70 -2564 2606 0
-70 -2565 2607 0
-70 -2566 2608 0
-70 -2567 2609 0
-70 -2568 2610 0
-70 -2569 2611 0
-70 -2570 2612 0
-70 -2571 2613 0
-70 -2572 2614 0
-70 -2573 2615 0
-70 -2574 2616 0
-70 -2575 2617 0
-70 -2576 2618 0
-70 -2577 2619 0
-70 -2578 2620 0
-70 -2579 2621 0
-70 -2580 2622 0
-70 -2581 2623 0
-70 -2582 2624 0
-70 -2583 2625 0
-70 -2584 2626 0
-70 -2585 2627 0
-70 -2586 2628 0
-70 -2587 2629 0
-70 -2588 2630 0
-70 -2589 2631 0
-70 -2590 2632 0
-70 -2591 2633 0
-70 -2592 2634 0
-70 -2593 2635 0
-70 -2594 0
-71 2636 0
-2595 2636 0
-2596 2637 0
-2597 2638 0
-2598 2639 0
-2599 2640 0
-2600 2641 0
-2601 2642 0
-2602 2643 0
-2603 2644 0
-2604 2645 0
-2605 2646 0
-2606 2647 0
-2607 2648 0
-2608 2649 0
-2609 2650 0
-2610 2651 0
-2611 2652 0
-2612 2653 0
-2613 2654 0
-2614 2655 0
-2615 2656 0
-2616 2657 0
-2617 2658 0
-2618 2659 0
-2619 2660 0
-2620 2661 0
-2621 2662 0
-2622 2663 0
-2623 2664 0
-2624 2665 0
-2625 2666 0
-2626 2667 0
-2627 2668 0
-2628 2669 0
-2629 2670 0
-2630 2671 0
-2631 2672 0
-2632 2673 0
-2633 2674 0
-2634 2675 0
-2635 2676 0
-71 -2595 2637 0
-71 -2596 2638 0
-71 -2597 2639 0
-71 -2598 2640 0
-71 -2599 2641 0
-71 -2600 2642 0
-71 -2601 2643 0
-71 -2602 2644 0
-71 -2603 2645 0
-71 -2604 2646 0
-71 -2605 2647 0
-71 -2606 2648 0
-71 -2607 2649 0
-71 -2608 2650 0
-71 -2609 2651 0
-71 -2610 2652 0
-71 -2611 2653 0
-71 -2612 2654 0
-71 -2613 2655 0
-71 -2614 2656 0
-71 -2615 2657 0
-71 -2616 2658 0
-71 -2617 2659 0
-71 -2618 2660 0
-71 -2619 2661 0
-71 -2620 2662 0
-71 -2621 2663 0
-71 -2622 2664 0
-71 -2623 2665 0
-71 -2624 2666 0
-71 -2625 2667 0
-71 -2626 2668 0
-71 -2627 2669 0
-71 -2628 2670 0
-71 -2629 2671 0
-71 -2630 2672 0
-71 -2631 2673 0
-71 -2632 2674 0
-71 -2633 2675 0
-71 -2634 2676 0
-71 -2635 0
-72 2677 0
-2636 2677 0
-2637 2678 0
-2638 2679 0
-2639 2680 0
-2640 2681 0
-2641 2682 0
-2642 2683 0
-2643 2684 0
-2644 2685 0
-2645 2686 0
-2646 2687 0
-2647 2688 0
-2648 2689 0
-2649 2690 0
-2650 2691 0
-2651 2692 0
-2652 2693 0
-2653 2694 0
-2654 2695 0
-2655 2696 0
-2656 2697 0
-2657 2698 0
-2658 2699 0
-2659 2700 0
-2660 2701 0
-2661 2702 0
-2662 2703 0
-2663 2704 0
-2664 2705 0
-2665 2706 0
-2666 2707 0
-2667 2708 0
-2668 2709 0
-2669 2710 0
-2670 2711 0
-2671 2712 0
-2672 2713 0
-2673 2714 0
-2674 2715 0
-2675 2716 0
-2676 2717 0
-72 -2636 2678 0
-72 -2637 2679 0
-72 -2638 2680 0
-72 -2639 2681 0
-72 -2640 2682 0
-72 -2641 2683 0
-72 -2642 2684 0
-72 -2643 2685 0
-72 -2644 2686 0
-72 -2645 2687 0
-72 -2646 2688 0
-72 -2647 2689 0
-72 -2648 2690 0
-72 -2649 2691 0
-72 -2650 2692 0
-72 -2651 2693 0
-72 -2652 2694 0
-72 -2653 2695 0
-72 -2654 2696 0
-72 -2655 2697 0
-72 -2656 2698 0
-72 -2657 2699 0
-72 -2658 2700 0
-72 -2659 2701 0
-72 -2660 2702 0
-72 -2661 2703 0
-72 -2662 2704 0
-72 -2663 2705 0
-72 -2664 2706 0
-72 -2665 2707 0
-72 -2666 2708 0
-72 -2667 2709 0
-72 -2668 2710 0
-72 -2669 2711 0
-72 -2670 2712 0
-72 -2671 2713 0
-72 -2672 2714 0
-72 -2673 2715 0
-72 -2674 2716 0
-72 -2675 2717 0
-72 -2676 0
-73 2718 0
-2677 2718 0
-2678 2719 0
-2679 2720 0
-2680 2721 0
-2681 2722 0
-2682 2723 0
-2683 2724 0
-2684 2725 0
-2685 2726 0
-2686 2727 0
-2687 2728 0
-2688 2729 0
-2689 2730 0
-2690 2731 0
-2691 2732 0
-2692 2733 0
-2693 2734 0
-2694 2735 0
-2695 2736 0
-2696 2737 0
-2697 2738 0
-2698 2739 0
-2699 2740 0
-2700 2741 0
-2701 2742 0
-2702 2743 0
-2703 2744 0
-2704 2745 0
-2705 2746 0
-2706 2747 0
-2707 2748 0
-2708 2749 0
-2709 2750 0
-2710 2751 0
-2711 2752 0
-2712 2753 0
-2713 2754 0
-2714 2755 0
-2715 2756 0
-2716 2757 0
-2717 2758 0
-73 -2677 2719 0
-73 -2678 2720 0
-73 -2679 2721 0
-73 -2680 2722 0
-73 -2681 2723 0
-73 -2682 2724 0
-73 -2683 2725 0
-73 -2684 2726 0
-73 -2685 2727 0
-73 -2686 2728 0
-73 -2687 2729 0
-73 -2688 2730 0
-73 -2689 2731 0
-73 -2690 2732 0
-73 -2691 2733 0
-73 -2692 2734 0
-73 -2693 2735 0
-73 -2694 2736 0
-73 -2695 2737 0
-73 -2696 2738 0
-73 -2697 2739 0
-73 -2698 2740 0
-73 -2699 2741 0
-73 -2700 2742 0
-73 -2701 2743 0
-73 -2702 2744 0
-73 -2703 2745 0
-73 -2704 2746 0
-73 -2705 2747 0
-73 -2706 2748 0
-73 -2707 2749 0
-73 -2708 2750 0
-73 -2709 2751 0
-73 -2710 2752 0
-73 -2711 2753 0
-73 -2712 2754 0
-73 -2713 2755 0
-73 -2714 2756 0
-73 -2715 2757 0
-73 -2716 2758 0
-73 -2717 0
-74 2759 0
-2718 2759 0
-2719 2760 0
-2720 2761 0
-2721 2762 0
-2722 2763 0
-2723 2764 0
-2724 2765 0
-2725 2766 0
-2726 2767 0
-2727 2768 0
-2728 2769 0
-2729 2770 0
-2730 2771 0
-2731 2772 0
-2732 2773 0
-2733 2774 0
-2734 2775 0
-2735 2776 0
-2736 2777 0
-2737 2778 0
-2738 2779 0
-2739 2780 0
-2740 2781 0
-2741 2782 0
-2742 2783 0
-2743 2784 0
-2744 2785 0
-2745 2786 0
-2746 2787 0
-2747 2788 0
-2748 2789 0
-2749 2790 0
-2750 2791 0
-2751 2792 0
-2752 2793 0
-2753 2794 0
-2754 2795 0
-2755 2796 0
-2756 2797 0
-2757 2798 0
-2758 2799 0
-74 -2718 2760 0
-74 -2719 2761 0
-74 -2720 2762 0
-74 -2721 2763 0
-74 -2722 2764 0
-74 -2723 2765 0
-74 -2724 2766 0
-74 -2725 2767 0
-74 -2726 2768 0
-74 -2727 2769 0
-74 -2728 2770 0
-74 -2729 2771 0
-74 -2730 2772 0
-74 -2731 2773 0
-74 -2732 2774 0
-74 -2733 2775 0
-74 -2734 2776 0
-74 -2735 2777 0
-74 -2736 2778 0
-74 -2737 2779 0
-74 -2738 2780 0
-74 -2739 2781 0
-74 -2740 2782 0
-74 -2741 2783 0
-74 -2742 2784 0
-74 -2743 2785 0
-74 -2744 2786 0
-74 -2745 2787 0
-74 -2746 2788 0
-74 -2747 2789 0
-74 -2748 2790 0
-74 -2749 2791 0
-74 -2750 2792 0
-74 -2751 2793 0
-74 -2752 2794 0
-74 -2753 2795 0
-74 -2754 2796 0
-74 -2755 2797 0
-74 -2756 2798 0
-74 -2757 2799 0
-74 -2758 0
-75 2800 0
-2759 2800 0
-2760 2801 0
-2761 2802 0
-2762 2803 0
-2763 2804 0
-2764 2805 0
-2765 2806 0
-2766 2807 0
-2767 2808 0
-2768 2809 0
-2769 2810 0
-2770 2811 0
-2771 2812 0
-2772 2813 0
-2773 2814 0
-2774 2815 0
-2775 2816 0
-2776 2817 0
-2777 2818 0
-2778 2819 0
-2779 2820 0
-2780 2821 0
-2781 2822 0
-2782 2823 0
-2783 2824 0
-2784 2825 0
-2785 2826 0
-2786 2827 0
-2787 2828 0
-2788 2829 0
-2789 2830 0
-2790 2831 0
-2791 2832 0
-2792 2833 0
-2793 2834 0
-2794 2835 0
-2795 2836 0
-2796 2837 0
-2797 2838 0
-2798 2839 0
-2799 2840 0
-75 -2759 2801 0
-75 -2760 2802 0
-75 -2761 2803 0
-75 -2762 2804 0
-75 -2763 2805 0
-75 -2764 2806 0
-75 -2765 2807 0
-75 -2766 2808 0
-75 -2767 2809 0
-75 -2768 2810 0
-75 -2769 2811 0
-75 -2770 2812 0
-75 -2771 2813 0
-75 -2772 2814 0
-75 -2773 2815 0
-75 -2774 2816 0
-75 -2775 2817 0
-75 -2776 2818 0
-75 -2777 2819 0
-75 -2778 2820 0
-75 -2779 2821 0
-75 -2780 2822 0
-75 -2781 2823 0
-75 -2782 2824 0
-75 -2783 2825 0
-75 -2784 2826 0
-75 -2785 2827 0
-75 -2786 2828 0
-75 -2787 2829 0
-75 -2788 2830 0
-75 -2789 2831 0
-75 -2790 2832 0
-75 -2791 2833 0
-75 -2792 2834 0
-75 -2793 2835 0
-75 -2794 2836 0
-75 -2795 2837 0
-75 -2796 2838 0
-75 -2797 2839 0
-75 -2798 2840 0
-75 -2799 0
-76 2841 0
-2800 2841 0
-2801 2842 0
-2802 2843 0
-2803 2844 0
-2804 2845 0
-2805 2846 0
-2806 2847 0
-2807 2848 0
-2808 2849 0
-2809 2850 0
-2810 2851 0
-2811 2852 0
-2812 2853 0
-2813 2854 0
-2814 2855 0
-2815 2856 0
-2816 2857 0
-2817 2858 0
-2818 2859 0
-2819 2860 0
-2820 2861 0
-2821 2862 0
-2822 2863 0
-2823 2864 0
-2824 2865 0
-2825 2866 0
-2826 2867 0
-2827 2868 0
-2828 2869 0
-2829 2870 0
-2830 2871 0
-2831 2872 0
-2832 2873 0
-2833 2874 0
-2834 2875 0
-2835 2876 0
-2836 2877 0
-2837 2878 0
-2838 2879 0
-2839 2880 0
-2840 2881 0
-76 -2800 2842 0
-76 -2801 2843 0
-76 -2802 2844 0
-76 -2803 2845 0
-76 -2804 2846 0
-76 -2805 2847 0
-76 -2806 2848 0
-76 -2807 2849 0
-76 -2808 2850 0
-76 -2809 2851 0
-76 -2810 2852 0
-76 -2811 2853 0
-76 -2812 2854 0
-76 -2813 2855 0
-76 -2814 2856 0
-76 -2815 2857 0
-76 -2816 2858 0
-76 -2817 2859 0
-76 -2818 2860 0
-76 -2819 2861 0
-76 -2820 2862 0
-76 -2821 2863 0
-76 -2822 2864 0
-76 -2823 2865 0
-76 -2824 2866 0
-76 -2825 2867 0
-76 -2826 2868 0
-76 -2827 2869 0
-76 -2828 2870 0
-76 -2829 2871 0
-76 -2830 2872 0
-76 -2831 2873 0
-76 -2832 2874 0
-76 -2833 2875 0
-76 -2834 2876 0
-76 -2835 2877 0
-76 -2836 2878 0
-76 -2837 2879 0
-76 -2838 2880 0
-76 -2839 2881 0
-76 -2840 0
-77 2882 0
-2841 2882 0
-2842 2883 0
-2843 2884 0
-2844 2885 0
-2845 2886 0
-2846 2887 0
-2847 2888 0
-2848 2889 0
-2849 2890 0
-2850 2891 0
-2851 2892 0
-2852 2893 0
-2853 2894 0
-2854 2895 0
-2855 2896 0
-2856 2897 0
-2857 2898 0
-2858 2899 0
-2859 2900 0
-2860 2901 0
-2861 2902 0
-2862 2903 0
-2863 2904 0
-2864 2905 0
-2865 2906 0
-2866 2907 0
-2867 2908 0
-2868 2909 0
-2869 2910 0
-2870 2911 0
-2871 2912 0
-2872 2913 0
-2873 2914 0
-2874 2915 0
-2875 2916 0
-2876 2917 0
-2877 2918 0
-2878 2919 0
-2879 2920 0
-2880 2921 0
-2881 2922 0
-77 -2841 2883 0
-77 -2842 2884 0
-77 -2843 2885 0
-77 -2844 2886 0
-77 -2845 2887 0
-77 -2846 2888 0
-77 -2847 2889 0
-77 -2848 2890 0
-77 -2849 2891 0
-77 -2850 2892 0
-77 -2851 2893 0
-77 -2852 2894 0
-77 -2853 2895 0
-77 -2854 2896 0
-77 -2855 2897 0
-77 -2856 2898 0
-77 -2857 2899 0
-77 -2858 2900 0
-77 -2859 2901 0
-77 -2860 2902 0
-77 -2861 2903 0
-77 -2862 2904 0
-77 -2863 2905 0
-77 -2864 2906 0
-77 -2865 2907 0
-77 -2866 2908 0
-77 -2867 2909 0
-77 -2868 2910 0
-77 -2869 2911 0
-77 -2870 2912 0
-77 -2871 2913 0
-77 -2872 2914 0
-77 -2873 2915 0
-77 -2874 2916 0
-77 -2875 2917 0
-77 -2876 2918 0
-77 -2877 2919 0
-77 -2878 2920 0
-77 -2879 2921 0
-77 -2880 2922 0
-77 -2881 0
-78 2923 0
-2882 2923 0
-2883 2924 0
-2884 2925 0
-2885 2926 0
-2886 2927 0
-2887 2928 0
-2888 2929 0
-2889 2930 0
-2890 2931 0
-2891 2932 0
-2892 2933 0
-2893 2934 0
-2894 2935 0
-2895 2936 0
-2896 2937 0
-2897 2938 0
-2898 2939 0
-2899 2940 0
-2900 2941 0
-2901 2942 0
-2902 2943 0
-2903 2944 0
-2904 2945 0
-2905 2946 0
-2906 2947 0
-2907 2948 0
-2908 2949 0
-2909 2950 0
-2910 2951 0
-2911 2952 0
-2912 2953 0
-2913 2954 0
-2914 2955 0
-2915 2956 0
-2916 2957 0
-2917 2958 0
-2918 2959 0
-2919 2960 0
-2920 2961 0
-2921 2962 0
-2922 2963 0
-78 -2882 2924 0
-78 -2883 2925 0
-78 -2884 2926 0
-78 -2885 2927 0
-78 -2886 2928 0
-78 -2887 2929 0
-78 -2888 2930 0
-78 -2889 2931 0
-78 -2890 2932 0
-78 -2891 2933 0
-78 -2892 2934 0
-78 -2893 2935 0
-78 -2894 2936 0
-78 -2895 2937 0
-78 -2896 2938 0
-78 -2897 2939 0
-78 -2898 2940 0
-78 -2899 2941 0
-78 -2900 2942 0
-78 -2901 2943 0
-78 -2902 2944 0
-78 -2903 2945 0
-78 -2904 2946 0
-78 -2905 2947 0
-78 -2906 2948 0
-78 -2907 2949 0
-78 -2908 2950 0
-78 -2909 2951 0
-78 -2910 2952 0
-78 -2911 2953 0
-78 -2912 2954 0
-78 -2913 2955 0
-78 -2914 2956 0
-78 -2915 2957 0
-78 -2916 2958 0
-78 -2917 2959 0
-78 -2918 2960 0
-78 -2919 2961 0
-78 -2920 2962 0
-78 -2921 2963 0
-78 -2922 0
-79 2964 0
-2923 2964 0
-2924 2965 0
-2925 2966 0
-2926 2967 0
-2927 2968 0
-2928 2969 0
-2929 2970 0
-2930 2971 0
-2931 2972 0
-2932 2973 0
-2933 2974 0
-2934 2975 0
-2935 2976 0
-2936 2977 0
-2937 2978 0
-2938 2979 0
-2939 2980 0
-2940 2981 0
-2941 2982 0
-2942 2983 0
-2943 2984 0
-2944 2985 0
-2945 2986 0
-2946 2987 0
-2947 2988 0
-2948 2989 0
-2949 2990 0
-2950 2991 0
-2951 2992 0
-2952 2993 0
-2953 2994 0
-2954 2995 0
-2955 2996 0
-2956 2997 0
-2957 2998 0
-2958 2999 0
-2959 3000 0
-2960 3001 0
-2961 3002 0
-2962 3003 0
-2963 3004 0
-79 -2923 2965 0
-79 -2924 2966 0
-79 -2925 2967 0
-79 -2926 2968 0
-79 -2927 2969 0
-79 -2928 2970 0
-79 -2929 2971 0
-79 -2930 2972 0
-79 -2931 2973 0
-79 -2932 2974 0
-79 -2933 2975 0
-79 -2934 2976 0
-79 -2935 2977 0
-79 -2936 2978 0
-79 -2937 2979 0
-79 -2938 2980 0
-79 -2939 2981 0
-79 -2940 2982 0
-79 -2941 2983 0
-79 -2942 2984 0
-79 -2943 2985 0
-79 -2944 2986 0
-79 -2945 2987 0
-79 -2946 2988 0
-79 -2947 2989 0
-79 -2948 2990 0
-79 -2949 2991 0
-79 -2950 2992 0
-79 -2951 2993 0
-79 -2952 2994 0
-79 -2953 2995 0
-79 -2954 2996 0
-79 -2955 2997 0
-79 -2956 2998 0
-79 -2957 2999 0
-79 -2958 3000 0
-79 -2959 3001 0
-79 -2960 3002 0
-79 -2961 3003 0
-79 -2962 3004 0
-79 -2963 0
-80 3005 0
-2964 3005 0
-2965 3006 0
-2966 3007 0
-2967 3008 0
-2968 3009 0
-2969 3010 0
-2970 3011 0
-2971 3012 0
-2972 3013 0
-2973 3014 0
-2974 3015 0
-2975 3016 0
-2976 3017 0
-2977 3018 0
-2978 3019 0
-2979 3020 0
-2980 3021 0
-2981 3022 0
-2982 3023 0
-2983 3024 0
-2984 3025 0
-2985 3026 0
-2986 3027 0
-2987 3028 0
-2988 3029 0
-2989 3030 0
-2990 3031 0
-2991 3032 0
-2992 3033 0
-2993 3034 0
-2994 3035 0
-2995 3036 0
-2996 3037 0
-2997 3038 0
-2998 3039 0
-2999 3040 0
-3000 3041 0
-3001 3042 0
-3002 3043 0
-3003 3044 0
-3004 3045 0
-80 -2964 3006 0
-80 -2965 3007 0
-80 -2966 3008 0
-80 -2967 3009 0
-80 -2968 3010 0
-80 -2969 3011 0
-80 -2970 3012 0
-80 -2971 3013 0
-80 -2972 3014 0
-80 -2973 3015 0
-80 -2974 3016 0
-80 -2975 3017 0
-80 -2976 3018 0
-80 -2977 3019 0
-80 -2978 3020 0
-80 -2979 3021 0
-80 -2980 3022 0
-80 -2981 3023 0
-80 -2982 3024 0
-80 -2983 3025 0
-80 -2984 3026 0
-80 -2985 3027 0
-80 -2986 3028 0
-80 -2987 3029 0
-80 -2988 3030 0
-80 -2989 3031 0
-80 -2990 3032 0
-80 -2991 3033 0
-80 -2992 3034 0
-80 -2993 3035 0
-80 -2994 3036 0
-80 -2995 3037 0
-80 -2996 3038 0
-80 -2997 3039 0
-80 -2998 3040 0
-80 -2999 3041 0
-80 -3000 3042 0
-80 -3001 3043 0
-80 -3002 3044 0
-80 -3003 3045 0
-80 -3004 0
-81 3046 0
-3005 3046 0
-3006 3047 0
-3007 3048 0
-3008 3049 0
-3009 3050 0
-3010 3051 0
-3011 3052 0
-3012 3053 0
-3013 3054 0
-3014 3055 0
-3015 3056 0
-3016 3057 0
-3017 3058 0
-3018 3059 0
-3019 3060 0
-3020 3061 0
-3021 3062 0
-3022 3063 0
-3023 3064 0
-3024 3065 0
-3025 3066 0
-3026 3067 0
-3027 3068 0
-3028 3069 0
-3029 3070 0
-3030 3071 0
-3031 3072 0
-3032 3073 0
-3033 3074 0
-3034 3075 0
-3035 3076 0
-3036 3077 0
-3037 3078 0
-3038 3079 0
-3039 3080 0
-3040 3081 0
-3041 3082 0
-3042 3083 0
-3043 3084 0
-3044 3085 0
-3045 3086 0
-81 -3005 3047 0
-81 -3006 3048 0
-81 -3007 3049 0
-81 -3008 3050 0
-81 -3009 3051 0
-81 -3010 3052 0
-81 -3011 3053 0
-81 -3012 3054 0
-81 -3013 3055 0
-81 -3014 3056 0
-81 -3015 3057 0
-81 -3016 3058 0
-81 -3017 3059 0
-81 -3018 3060 0
-81 -3019 3061 0
-81 -3020 3062 0
-81 -3021 3063 0
-81 -3022 3064 0
-81 -3023 3065 0
-81 -3024 3066 0
-81 -3025 3067 0
-81 -3026 3068 0
-81 -3027 3069 0
-81 -3028 3070 0
-81 -3029 3071 0
-81 -3030 3072 0
-81 -3031 3073 0
-81 -3032 3074 0
-81 -3033 3075 0
-81 -3034 3076 0
-81 -3035 3077 0
-81 -3036 3078 0
-81 -3037 3079 0
-81 -3038 3080 0
-81 -3039 3081 0
-81 -3040 3082 0
-81 -3041 3083 0
-81 -3042 3084 0
-81 -3043 3085 0
-81 -3044 3086 0
-81 -3045 0
-82 3087 0
-3046 3087 0
-3047 3088 0
-3048 3089 0
-3049 3090 0
-3050 3091 0
-3051 3092 0
-3052 3093 0
-3053 3094 0
-3054 3095 0
-3055 3096 0
-3056 3097 0
-3057 3098 0
-3058 3099 0
-3059 3100 0
-3060 3101 0
-3061 3102 0
-3062 3103 0
-3063 3104 0
-3064 3105 0
-3065 3106 0
-3066 3107 0
-3067 3108 0
-3068 3109 0
-3069 3110 0
-3070 3111 0
-3071 3112 0
-3072 3113 0
-3073 3114 0
-3074 3115 0
-3075 3116 0
-3076 3117 0
-3077 3118 0
-3078 3119 0
-3079 3120 0
-3080 3121 0
-3081 3122 0
-3082 3123 0
-3083 3124 0
-3084 3125 0
-3085 3126 0
-3086 3127 0
-82 -3046 3088 0
-82 -3047 3089 0
-82 -3048 3090 0
-82 -3049 3091 0
-82 -3050 3092 0
-82 -3051 3093 0
-82 -3052 3094 0
-82 -3053 3095 0
-82 -3054 3096 0
-82 -3055 3097 0
-82 -3056 3098 0
-82 -3057 3099 0
-82 -3058 3100 0
-82 -3059 3101 0
-82 -3060 3102 0
-82 -3061 3103 0
-82 -3062 3104 0
-82 -3063 3105 0
-82 -3064 3106 0
-82 -3065 3107 0
-82 -3066 3108 0
-82 -3067 3109 0
-82 -3068 3110 0
-82 -3069 3111 0
-82 -3070 3112 0
-82 -3071 3113 0
-82 -3072 3114 0
-82 -3073 3115 0
-82 -3074 3116 0
-82 -3075 3117 0
-82 -3076 3118 0
-82 -3077 3119 0
-82 -3078 3120 0
-82 -3079 3121 0
-82 -3080 3122 0
-82 -3081 3123 0
-82 -3082 3124 0
-82 -3083 3125 0
-82 -3084 3126 0
-82 -3085 3127 0
-82 -3086 0
-83 3128 0
-3087 3128 0
-3088 3129 0
-3089 3130 0
-3090 3131 0
-3091 3132 0
-3092 3133 0
-3093 3134 0
-3094 3135 0
-3095 3136 0
-3096 3137 0
-3097 3138 0
-3098 3139 0
-3099 3140 0
-3100 3141 0
-3101 3142 0
-3102 3143 0
-3103 3144 0
-3104 3145 0
-3105 3146 0
-3106 3147 0
-3107 3148 0
-3108 3149 0
-3109 3150 0
-3110 3151 0
-3111 3152 0
-3112 3153 0
-3113 3154 0
-3114 3155 0
-3115 3156 0
-3116 3157 0
-3117 3158 0
-3118 3159 0
-3119 3160 0
-3120 3161 0
-3121 3162 0
-3122 3163 0
-3123 3164 0
-3124 3165 0
-3125 3166 0
-3126 3167 0
-3127 3168 0
-83 -3087 3129 0
-83 -3088 3130 0
-83 -3089 3131 0
-83 -3090 3132 0
-83 -3091 3133 0
-83 -3092 3134 0
-83 -3093 3135 0
-83 -3094 3136 0
-83 -3095 3137 0
-83 -3096 3138 0
-83 -3097 3139 0
-83 -3098 3140 0
-83 -3099 3141 0
-83 -3100 3142 0
-83 -3101 3143 0
-83 -3102 3144 0
-83 -3103 3145 0
-83 -3104 3146 0
-83 -3105 3147 0
-83 -3106 3148 0
-83 -3107 3149 0
-83 -3108 3150 0
-83 -3109 3151 0
-83 -3110 3152 0
-83 -3111 3153 0
-83 -3112 3154 0
-83 -3113 3155 0
-83 -3114 3156 0
-83 -3115 3157 0
-83 -3116 3158 0
-83 -3117 3159 0
-83 -3118 3160 0
-83 -3119 3161 0
-83 -3120 3162 0
-83 -3121 3163 0
-83 -3122 3164 0
-83 -3123 3165 0
-83 -3124 3166 0
-83 -3125 3167 0
-83 -3126 3168 0
-83 -3127 0
-84 3169 0
-3128 3169 0
-3129 3170 0
-3130 3171 0
-3131 3172 0
-3132 3173 0
-3133 3174 0
-3134 3175 0
-3135 3176 0
-3136 3177 0
-3137 3178 0
-3138 3179 0
-3139 3180 0
-3140 3181 0
-3141 3182 0
-3142 3183 0
-3143 3184 0
-3144 3185 0
-3145 3186 0
-3146 3187 0
-3147 3188 0
-3148 3189 0
-3149 3190 0
-3150 3191 0
-3151 3192 0
-3152 3193 0
-3153 3194 0
-3154 3195 0
-3155 3196 0
-3156 3197 0
-3157 3198 0
-3158 3199 0
-3159 3200 0
-3160 3201 0
-3161 3202 0
-3162 3203 0
-3163 3204 0
-3164 3205 0
-3165 3206 0
-3166 3207 0
-3167 3208 0
-3168 3209 0
-84 -3128 3170 0
-84 -3129 3171 0
-84 -3130 3172 0
-84 -3131 3173 0
-84 -3132 3174 0
-84 -3133 3175 0
-84 -3134 3176 0
-84 -3135 3177 0
-84 -3136 3178 0
-84 -3137 3179 0
-84 -3138 3180 0
-84 -3139 3181 0
-84 -3140 3182 0
-84 -3141 3183 0
-84 -3142 3184 0
-84 -3143 3185 0
-84 -3144 3186 0
-84 -3145 3187 0
-84 -3146 3188 0
-84 -3147 3189 0
-84 -3148 3190 0
-84 -3149 3191 0
-84 -3150 3192 0
-84 -3151 3193 0
-84 -3152 3194 0
-84 -3153 3195 0
-84 -3154 3196 0
-84 -3155 3197 0
-84 -3156 3198 0
-84 -3157 3199 0
-84 -3158 3200 0
-84 -3159 3201 0
-84 -3160 3202 0
-84 -3161 3203 0
-84 -3162 3204 0
-84 -3163 3205 0
-84 -3164 3206 0
-84 -3165 3207 0
-84 -3166 3208 0
-84 -3167 3209 0
-84 -3168 0
-85 3210 0
-3169 3210 0
-3170 3211 0
-3171 3212 0
-3172 3213 0
-3173 3214 0
-3174 3215 0
-3175 3216 0
-3176 3217 0
-3177 3218 0
-3178 3219 0
-3179 3220 0
-3180 3221 0
-3181 3222 0
-3182 3223 0
-3183 3224 0
-3184 3225 0
-3185 3226 0
-3186 3227 0
-3187 3228 0
-3188 3229 0
-3189 3230 0
-3190 3231 0
-3191 3232 0
-3192 3233 0
-3193 3234 0
-3194 3235 0
-3195 3236 0
-3196 3237 0
-3197 3238 0
-3198 3239 0
-3199 3240 0
-3200 3241 0
-3201 3242 0
-3202 3243 0
-3203 3244 0
-3204 3245 0
-3205 3246 0
-3206 3247 0
-3207 3248 0
-3208 3249 0
-3209 3250 0
-85 -3169 3211 0
-85 -3170 3212 0
-85 -3171 3213 0
-85 -3172 3214 0
-85 -3173 3215 0
-85 -3174 3216 0
-85 -3175 3217 0
-85 -3176 3218 0
-85 -3177 3219 0
-85 -3178 3220 0
-85 -3179 3221 0
-85 -3180 3222 0
-85 -3181 3223 0
-85 -3182 3224 0
-85 -3183 3225 0
-85 -3184 3226 0
-85 -3185 3227 0
-85 -3186 3228 0
-85 -3187 3229 0
-85 -3188 3230 0
-85 -3189 3231 0
-85 -3190 3232 0
-85 -3191 3233 0
-85 -3192 3234 0
-85 -3193 3235 0
-85 -3194 3236 0
-85 -3195 3237 0
-85 -3196 3238 0
-85 -3197 3239 0
-85 -3198 3240 0
-85 -3199 3241 0
-85 -3200 3242 0
-85 -3201 3243 0
-85 -3202 3244 0
-85 -3203 3245 0
-85 -3204 3246 0
-85 -3205 3247 0
-85 -3206 3248 0
-85 -3207 3249 0
-85 -3208 3250 0
-85 -3209 0
-86 3251 0
-3210 3251 0
-3211 3252 0
-3212 3253 0
-3213 3254 0
-3214 3255 0
-3215 3256 0
-3216 3257 0
-3217 3258 0
-3218 3259 0
-3219 3260 0
-3220 3261 0
-3221 3262 0
-3222 3263 0
-3223 3264 0
-3224 3265 0
-3225 3266 0
-3226 3267 0
-3227 3268 0
-3228 3269 0
-3229 3270 0
-3230 3271 0
-3231 3272 0
-3232 3273 0
-3233 3274 0
-3234 3275 0
-3235 3276 0
-3236 3277 0
-3237 3278 0
-3238 3279 0
-3239 3280 0
-3240 3281 0
-3241 3282 0
-3242 3283 0
-3243 3284 0
-3244 3285 0
-3245 3286 0
-3246 3287 0
-3247 3288 0
-3248 3289 0
-3249 3290 0
-3250 3291 0
-86 -3210 3252 0
-86 -3211 3253 0
-86 -3212 3254 0
-86 -3213 3255 0
-86 -3214 3256 0
-86 -3215 3257 0
-86 -3216 3258 0
-86 -3217 3259 0
-86 -3218 3260 0
-86 -3219 3261 0
-86 -3220 3262 0
-86 -3221 3263 0
-86 -3222 3264 0
-86 -3223 3265 0
-86 -3224 3266 0
-86 -3225 3267 0
-86 -3226 3268 0
-86 -3227 3269 0
-86 -3228 3270 0
-86 -3229 3271 0
-86 -3230 3272 0
-86 -3231 3273 0
-86 -3232 3274 0
-86 -3233 3275 0
-86 -3234 3276 0
-86 -3235 3277 0
-86 -3236 3278 0
-86 -3237 3279 0
-86 -3238 3280 0
-86 -3239 3281 0
-86 -3240 3282 0
-86 -3241 3283 0
-86 -3242 3284 0
-86 -3243 3285 0
-86 -3244 3286 0
-86 -3245 3287 0
-86 -3246 3288 0
-86 -3247 3289 0
-86 -3248 3290 0
-86 -3249 3291 0
-86 -3250 0
-87 3292 0
-3251 3292 0
-3252 3293 0
-3253 3294 0
-3254 3295 0
-3255 3296 0
-3256 3297 0
-3257 3298 0
-3258 3299 0
-3259 3300 0
-3260 3301 0
-3261 3302 0
-3262 3303 0
-3263 3304 0
-3264 3305 0
-3265 3306 0
-3266 3307 0
-3267 3308 0
-3268 3309 0
-3269 3310 0
-3270 3311 0
-3271 3312 0
-3272 3313 0
-3273 3314 0
-3274 3315 0
-3275 3316 0
-3276 3317 0
-3277 3318 0
-3278 3319 0
-3279 3320 0
-3280 3321 0
-3281 3322 0
-3282 3323 0
-3283 3324 0
-3284 3325 0
-3285 3326 0
-3286 3327 0
-3287 3328 0
-3288 3329 0
-3289 3330 0
-3290 3331 0
-3291 3332 0
-87 -3251 3293 0
-87 -3252 3294 0
-87 -3253 3295 0
-87 -3254 3296 0
-87 -3255 3297 0
-87 -3256 3298 0
-87 -3257 3299 0
-87 -3258 3300 0
-87 -3259 3301 0
-87 -3260 3302 0
-87 -3261 3303 0
-87 -3262 3304 0
-87 -3263 3305 0
-87 -3264 3306 0
-87 -3265 3307 0
-87 -3266 3308 0
-87 -3267 3309 0
-87 -3268 3310 0
-87 -3269 3311 0
-87 -3270 3312 0
-87 -3271 3313 0
-87 -3272 3314 0
-87 -3273 3315 0
-87 -3274 3316 0
-87 -3275 3317 0
-87 -3276 3318 0
-87 -3277 3319 0
-87 -3278 3320 0
-87 -3279 3321 0
-87 -3280 3322 0
-87 -3281 3323 0
-87 -3282 3324 0
-87 -3283 3325 0
-87 -3284 3326 0
-87 -3285 3327 0
-87 -3286 3328 0
-87 -3287 3329 0
-87 -3288 3330 0
-87 -3289 3331 0
-87 -3290 3332 0
-87 -3291 0
-88 3333 0
-3292 3333 0
-3293 3334 0
-3294 3335 0
-3295 3336 0
-3296 3337 0
-3297 3338 0
-3298 3339 0
-3299 3340 0
-3300 3341 0
-3301 3342 0
-3302 3343 0
-3303 3344 0
-3304 3345 0
-3305 3346 0
-3306 3347 0
-3307 3348 0
-3308 3349 0
-3309 3350 0
-3310 3351 0
-3311 3352 0
-3312 3353 0
-3313 3354 0
-3314 3355 0
-3315 3356 0
-3316 3357 0
-3317 3358 0
-3318 3359 0
-3319 3360 0
-3320 3361 0
-3321 3362 0
-3322 3363 0
-3323 3364 0
-3324 3365 0
-3325 3366 0
-3326 3367 0
-3327 3368 0
-3328 3369 0
-3329 3370 0
-3330 3371 0
-3331 3372 0
-3332 3373 0
-88 -3292 3334 0
-88 -3293 3335 0
-88 -3294 3336 0
-88 -3295 3337 0
-88 -3296 3338 0
-88 -3297 3339 0
-88 -3298 3340 0
-88 -3299 3341 0
-88 -3300 3342 0
-88 -3301 3343 0
-88 -3302 3344 0
-88 -3303 3345 0
-88 -3304 3346 0
-88 -3305 3347 0
-88 -3306 3348 0
-88 -3307 3349 0
-88 -3308 3350 0
-88 -3309 3351 0
-88 -3310 3352 0
-88 -3311 3353 0
-88 -3312 3354 0
-88 -3313 3355 0
-88 -3314 3356 0
-88 -3315 3357 0
-88 -3316 3358 0
-88 -3317 3359 0
-88 -3318 3360 0
-88 -3319 3361 0
-88 -3320 3362 0
-88 -3321 3363 0
-88 -3322 3364 0
-88 -3323 3365 0
-88 -3324 3366 0
-88 -3325 3367 0
-88 -3326 3368 0
-88 -3327 3369 0
-88 -3328 3370 0
-88 -3329 3371 0
-88 -3330 3372 0
-88 -3331 3373 0
-88 -3332 0
-89 3374 0
-3333 3374 0
-3334 3375 0
-3335 3376 0
-3336 3377 0
-3337 3378 0
-3338 3379 0
-3339 3380 0
-3340 3381 0
-3341 3382 0
-3342 3383 0
-3343 3384 0
-3344 3385 0
-3345 3386 0
-3346 3387 0
-3347 3388 0
-3348 3389 0
-3349 3390 0
-3350 3391 0
-3351 3392 0
-3352 3393 0
-3353 3394 0
-3354 3395 0
-3355 3396 0
-3356 3397 0
-3357 3398 0
-3358 3399 0
-3359 3400 0
-3360 3401 0
-3361 3402 0
-3362 3403 0
-3363 3404 0
-3364 3405 0
-3365 3406 0
-3366 3407 0
-3367 3408 0
-3368 3409 0
-3369 3410 0
-3370 3411 0
-3371 3412 0
-3372 3413 0
-3373 3414 0
-89 -3333 3375 0
-89 -3334 3376 0
-89 -3335 3377 0
-89 -3336 3378 0
-89 -3337 3379 0
-89 -3338 3380 0
-89 -3339 3381 0
-89 -3340 3382 0
-89 -3341 3383 0
-89 -3342 3384 0
-89 -3343 3385 0
-89 -3344 3386 0
-89 -3345 3387 0
-89 -3346 3388 0
-89 -3347 3389 0
-89 -3348 3390 0
-89 -3349 3391 0
-89 -3350 3392 0
-89 -3351 3393 0
-89 -3352 3394 0
-89 -3353 3395 0
-89 -3354 3396 0
-89 -3355 3397 0
-89 -3356 3398 0
-89 -3357 3399 0
-89 -3358 3400 0
-89 -3359 3401 0
-89 -3360 3402 0
-89 -3361 3403 0
-89 -3362 3404 0
-89 -3363 3405 0
-89 -3364 3406 0
-89 -3365 3407 0
-89 -3366 3408 0
-89 -3367 3409 0
-89 -3368 3410 0
-89 -3369 3411 0
-89 -3370 3412 0
-89 -3371 3413 0
-89 -3372 3414 0
-89 -3373 0
-90 3415 0
-3374 3415 0
-3375 3416 0
-3376 3417 0
-3377 3418 0
-3378 3419 0
-3379 3420 0
-3380 3421 0
-3381 3422 0
-3382 3423 0
-3383 3424 0
-3384 3425 0
-3385 3426 0
-3386 3427 0
-3387 3428 0
-3388 3429 0
-3389 3430 0
-3390 3431 0
-3391 3432 0
-3392 3433 0
-3393 3434 0
-3394 3435 0
-3395 3436 0
-3396 3437 0
-3397 3438 0
-3398 3439 0
-3399 3440 0
-3400 3441 0
-3401 3442 0
-3402 3443 0
-3403 3444 0
-3404 3445 0
-3405 3446 0
-3406 3447 0
-3407 3448 0
-3408 3449 0
-3409 3450 0
-3410 3451 0
-3411 3452 0
-3412 3453 0
-3413 3454 0
-3414 3455 0
-90 -3374 3416 0
-90 -3375 3417 0
-90 -3376 3418 0
-90 -3377 3419 0
-90 -3378 3420 0
-90 -3379 3421 0
-90 -3380 3422 0
-90 -3381 3423 0
-90 -3382 3424 0
-90 -3383 3425 0
-90 -3384 3426 0
-90 -3385 3427 0
-90 -3386 3428 0
-90 -3387 3429 0
-90 -3388 3430 0
-90 -3389 3431 0
-90 -3390 3432 0
-90 -3391 3433 0
-90 -3392 3434 0
-90 -3393 3435 0
-90 -3394 3436 0
-90 -3395 3437 0
-90 -3396 3438 0
-90 -3397 3439 0
-90 -3398 3440 0
-90 -3399 3441 0
-90 -3400 3442 0
-90 -3401 3443 0
-90 -3402 3444 0
-90 -3403 3445 0
-90 -3404 3446 0
-90 -3405 3447 0
-90 -3406 3448 0
-90 -3407 3449 0
-90 -3408 3450 0
-90 -3409 3451 0
-90 -3410 3452 0
-90 -3411 3453 0
-90 -3412 3454 0
-90 -3413 3455 0
-90 -3414 0
-91 3456 0
-3415 3456 0
-3416 3457 0
-3417 3458 0
-3418 3459 0
-3419 3460 0
-3420 3461 0
-3421 3462 0
-3422 3463 0
-3423 3464 0
-3424 3465 0
-3425 3466 0
-3426 3467 0
-3427 3468 0
-3428 3469 0
-3429 3470 0
-3430 3471 0
-3431 3472 0
-3432 3473 0
-3433 3474 0
-3434 3475 0
-3435 3476 0
-3436 3477 0
-3437 3478 0
-3438 3479 0
-3439 3480 0
-3440 3481 0
-3441 3482 0
-3442 3483 0
-3443 3484 0
-3444 3485 0
-3445 3486 0
-3446 3487 0
-3447 3488 0
-3448 3489 0
-3449 3490 0
-3450 3491 0
-3451 3492 0
-3452 3493 0
-3453 3494 0
-3454 3495 0
-3455 3496 0
-91 -3415 3457 0
-91 -3416 3458 0
-91 -3417 3459 0
-91 -3418 3460 0
-91 -3419 3461 0
-91 -3420 3462 0
-91 -3421 3463 0
-91 -3422 3464 0
-91 -3423 3465 0
-91 -3424 3466 0
-91 -3425 3467 0
-91 -3426 3468 0
-91 -3427 3469 0
-91 -3428 3470 0
-91 -3429 3471 0
-91 -3430 3472 0
-91 -3431 3473 0
-91 -3432 3474 0
-91 -3433 3475 0
-91 -3434 3476 0
-91 -3435 3477 0
-91 -3436 3478 0
-91 -3437 3479 0
-91 -3438 3480 0
-91 -3439 3481 0
-91 -3440 3482 0
-91 -3441 3483 0
-91 -3442 3484 0
-91 -3443 3485 0
-91 -3444 3486 0
-91 -3445 3487 0
-91 -3446 3488 0
-91 -3447 3489 0
-91 -3448 3490 0
-91 -3449 3491 0
-91 -3450 3492 0
-91 -3451 3493 0
-91 -3452 3494 0
-91 -3453 3495 0
-91 -3454 3496 0
-91 -3455 0
-92 3497 0
-3456 3497 0
-3457 3498 0
-3458 3499 0
-3459 3500 0
-3460 3501 0
-3461 3502 0
-3462 3503 0
-3463 3504 0
-3464 3505 0
-3465 3506 0
-3466 3507 0
-3467 3508 0
-3468 3509 0
-3469 3510 0
-3470 3511 0
-3471 3512 0
-3472 3513 0
-3473 3514 0
-3474 3515 0
-3475 3516 0
-3476 3517 0
-3477 3518 0
-3478 3519 0
-3479 3520 0
-3480 3521 0
-3481 3522 0
-3482 3523 0
-3483 3524 0
-3484 3525 0
-3485 3526 0
-3486 3527 0
-3487 3528 0
-3488 3529 0
-3489 3530 0
-3490 3531 0
-3491 3532 0
-3492 3533 0
-3493 3534 0
-3494 3535 0
-3495 3536 0
-3496 3537 0
-92 -3456 3498 0
-92 -3457 3499 0
-92 -3458 3500 0
-92 -3459 3501 0
-92 -3460 3502 0
-92 -3461 3503 0
-92 -3462 3504 0
-92 -3463 3505 0
-92 -3464 3506 0
-92 -3465 3507 0
-92 -3466 3508 0
-92 -3467 3509 0
-92 -3468 3510 0
-92 -3469 3511 0
-92 -3470 3512 0
-92 -3471 3513 0
-92 -3472 3514 0
-92 -3473 3515 0
-92 -3474 3516 0
-92 -3475 3517 0
-92 -3476 3518 0
-92 -3477 3519 0
-92 -3478 3520 0
-92 -3479 3521 0
-92 -3480 3522 0
-92 -3481 3523 0
-92 -3482 3524 0
-92 -3483 3525 0
-92 -3484 3526 0
-92 -3485 3527 0
-92 -3486 3528 0
-92 -3487 3529 0
-92 -3488 3530 0
-92 -3489 3531 0
-92 -3490 3532 0
-92 -3491 3533 0
-92 -3492 3534 0
-92 -3493 3535 0
-92 -3494 3536 0
-92 -3495 3537 0
-92 -3496 0
-93 3538 0
-3497 3538 0
-3498 3539 0
-3499 3540 0
-3500 3541 0
-3501 3542 0
-3502 3543 0
-3503 3544 0
-3504 3545 0
-3505 3546 0
-3506 3547 0
-3507 3548 0
-3508 3549 0
-3509 3550 0
-3510 3551 0
-3511 3552 0
-3512 3553 0
-3513 3554 0
-3514 3555 0
-3515 3556 0
-3516 3557 0
-3517 3558 0
-3518 3559 0
-3519 3560 0
-3520 3561 0
-3521 3562 0
-3522 3563 0
-3523 3564 0
-3524 3565 0
-3525 3566 0
-3526 3567 0
-3527 3568 0
-3528 3569 0
-3529 3570 0
-3530 3571 0
-3531 3572 0
-3532 3573 0
-3533 3574 0
-3534 3575 0
-3535 3576 0
-3536 3577 0
-3537 3578 0
-93 -3497 3539 0
-93 -3498 3540 0
-93 -3499 3541 0
-93 -3500 3542 0
-93 -3501 3543 0
-93 -3502 3544 0
-93 -3503 3545 0
-93 -3504 3546 0
-93 -3505 3547 0
-93 -3506 3548 0
-93 -3507 3549 0
-93 -3508 3550 0
-93 -3509 3551 0
-93 -3510 3552 0
-93 -3511 3553 0
-93 -3512 3554 0
-93 -3513 3555 0
-93 -3514 3556 0
-93 -3515 3557 0
-93 -3516 3558 0
-93 -3517 3559 0
-93 -3518 3560 0
-93 -3519 3561 0
-93 -3520 3562 0
-93 -3521 3563 0
-93 -3522 3564 0
-93 -3523 3565 0
-93 -3524 3566 0
-93 -3525 3567 0
-93 -3526 3568 0
-93 -3527 3569 0
-93 -3528 3570 0
-93 -3529 3571 0
-93 -3530 3572 0
-93 -3531 3573 0
-93 -3532 3574 0
-93 -3533 3575 0
-93 -3534 3576 0
-93 -3535 3577 0
-93 -3536 3578 0
-93 -3537 0
-94 3579 0
-3538 3579 0
-3539 3580 0
-3540 3581 0
-3541 3582 0
-3542 3583 0
-3543 3584 0
-3544 3585 0
-3545 3586 0
-3546 3587 0
-3547 3588 0
-3548 3589 0
-3549 3590 0
-3550 3591 0
-3551 3592 0
-3552 3593 0
-3553 3594 0
-3554 3595 0
-3555 3596 0
-3556 3597 0
-3557 3598 0
-3558 3599 0
-3559 3600 0
-3560 3601 0
-3561 3602 0
-3562 3603 0
-3563 3604 0
-3564 3605 0
-3565 3606 0
-3566 3607 0
-3567 3608 0
-3568 3609 0
-3569 3610 0
-3570 3611 0
-3571 3612 0
-3572 3613 0
-3573 3614 0
-3574 3615 0
-3575 3616 0
-3576 3617 0
-3577 3618 0
-3578 3619 0
-94 -3538 3580 0
-94 -3539 3581 0
-94 -3540 3582 0
-94 -3541 3583 0
-94 -3542 3584 0
-94 -3543 3585 0
-94 -3544 3586 0
-94 -3545 3587 0
-94 -3546 3588 0
-94 -3547 3589 0
-94 -3548 3590 0
-94 -3549 3591 0
-94 -3550 3592 0
-94 -3551 3593 0
-94 -3552 3594 0
-94 -3553 3595 0
-94 -3554 3596 0
-94 -3555 3597 0
-94 -3556 3598 0
-94 -3557 3599 0
-94 -3558 3600 0
-94 -3559 3601 0
-94 -3560 3602 0
-94 -3561 3603 0
-94 -3562 3604 0
-94 -3563 3605 0
-94 -3564 3606 0
-94 -3565 3607 0
-94 -3566 3608 0
-94 -3567 3609 0
-94 -3568 3610 0
-94 -3569 3611 0
-94 -3570 3612 0
-94 -3571 3613 0
-94 -3572 3614 0
-94 -3573 3615 0
-94 -3574 3616 0
-94 -3575 3617 0
-94 -3576 3618 0
-94 -3577 3619 0
-94 -3578 0
-95 3620 0
-3579 3620 0
-3580 3621 0
-3581 3622 0
-3582 3623 0
-3583 3624 0
-3584 3625 0
-3585 3626 0
-3586 3627 0
-3587 3628 0
-3588 3629 0
-3589 3630 0
-3590 3631 0
-3591 3632 0
-3592 3633 0
-3593 3634 0
-3594 3635 0
-3595 3636 0
-3596 3637 0
-3597 3638 0
-3598 3639 0
-3599 3640 0
-3600 3641 0
-3601 3642 0
-3602 3643 0
-3603 3644 0
-3604 3645 0
-3605 3646 0
-3606 3647 0
-3607 3648 0
-3608 3649 0
-3609 3650 0
-3610 3651 0
-3611 3652 0
-3612 3653 0
-3613 3654 0
-3614 3655 0
-3615 3656 0
-3616 3657 0
-3617 3658 0
-3618 3659 0
-3619 3660 0
-95 -3579 3621 0
-95 -3580 3622 0
-95 -3581 3623 0
-95 -3582 3624 0
-95 -3583 3625 0
-95 -3584 3626 0
-95 -3585 3627 0
-95 -3586 3628 0
-95 -3587 3629 0
-95 -3588 3630 0
-95 -3589 3631 0
-95 -3590 3632 0
-95 -3591 3633 0
-95 -3592 3634 0
-95 -3593 3635 0
-95 -3594 3636 0
-95 -3595 3637 0
-95 -3596 3638 0
-95 -3597 3639 0
-95 -3598 3640 0
-95 -3599 3641 0
-95 -3600 3642 0
-95 -3601 3643 0
-95 -3602 3644 0
-95 -3603 3645 0
-95 -3604 3646 0
-95 -3605 3647 0
-95 -3606 3648 0
-95 -3607 3649 0
-95 -3608 3650 0
-95 -3609 3651 0
-95 -3610 3652 0
-95 -3611 3653 0
-95 -3612 3654 0
-95 -3613 3655 0
-95 -3614 3656 0
-95 -3615 3657 0
-95 -3616 3658 0
-95 -3617 3659 0
-95 -3618 3660 0
-95 -3619 0
-96 3661 0
-3620 3661 0
-3621 3662 0
-3622 3663 0
-3623 3664 0
-3624 3665 0
-3625 3666 0
-3626 3667 0
-3627 3668 0
-3628 3669 0
-3629 3670 0
-3630 3671 0
-3631 3672 0
-3632 3673 0
-3633 3674 0
-3634 3675 0
-3635 3676 0
-3636 3677 0
-3637 3678 0
-3638 3679 0
-3639 3680 0
-3640 3681 0
-3641 3682 0
-3642 3683 0
-3643 3684 0
-3644 3685 0
-3645 3686 0
-3646 3687 0
-3647 3688 0
-3648 3689 0
-3649 3690 0
-3650 3691 0
-3651 3692 0
-3652 3693 0
-3653 3694 0
-3654 3695 0
-3655 3696 0
-3656 3697 0
-3657 3698 0
-3658 3699 0
-3659 3700 0
-3660 3701 0
-96 -3620 3662 0
-96 -3621 3663 0
-96 -3622 3664 0
-96 -3623 3665 0
-96 -3624 3666 0
-96 -3625 3667 0
-96 -3626 3668 0
-96 -3627 3669 0
-96 -3628 3670 0
-96 -3629 3671 0
-96 -3630 3672 0
-96 -3631 3673 0
-96 -3632 3674 0
-96 -3633 3675 0
-96 -3634 3676 0
-96 -3635 3677 0
-96 -3636 3678 0
-96 -3637 3679 0
-96 -3638 3680 0
-96 -3639 3681 0
-96 -3640 3682 0
-96 -3641 3683 0
-96 -3642 3684 0
-96 -3643 3685 0
-96 -3644 3686 0
-96 -3645 3687 0
-96 -3646 3688 0
-96 -3647 3689 0
-96 -3648 3690 0
-96 -3649 3691 0
-96 -3650 3692 0
-96 -3651 3693 0
-96 -3652 3694 0
-96 -3653 3695 0
-96 -3654 3696 0
-96 -3655 3697 0
-96 -3656 3698 0
-96 -3657 3699 0
-96 -3658 3700 0
-96 -3659 3701 0
-96 -3660 0
-97 3702 0
-3661 3702 0
-3662 3703 0
-3663 3704 0
-3664 3705 0
-3665 3706 0
-3666 3707 0
-3667 3708 0
-3668 3709 0
-3669 3710 0
-3670 3711 0
-3671 3712 0
-3672 3713 0
-3673 3714 0
-3674 3715 0
-3675 3716 0
-3676 3717 0
-3677 3718 0
-3678 3719 0
-3679 3720 0
-3680 3721 0
-3681 3722 0
-3682 3723 0
-3683 3724 0
-3684 3725 0
-3685 3726 0
-3686 3727 0
-3687 3728 0
-3688 3729 0
-3689 3730 0
-3690 3731 0
-3691 3732 0
-3692 3733 0
-3693 3734 0
-3694 3735 0
-3695 3736 0
-3696 3737 0
-3697 3738 0
-3698 3739 0
-3699 3740 0
-3700 3741 0
-3701 3742 0
-97 -3661 3703 0
-97 -3662 3704 0
-97 -3663 3705 0
-97 -3664 3706 0
-97 -3665 3707 0
-97 -3666 3708 0
-97 -3667 3709 0
-97 -3668 3710 0
-97 -3669 3711 0
-97 -3670 3712 0
-97 -3671 3713 0
-97 -3672 3714 0
-97 -3673 3715 0
-97 -3674 3716 0
-97 -3675 3717 0
-97 -3676 3718 0
-97 -3677 3719 0
-97 -3678 3720 0
-97 -3679 3721 0
-97 -3680 3722 0
-97 -3681 3723 0
-97 -3682 3724 0
-97 -3683 3725 0
-97 -3684 3726 0
-97 -3685 3727 0
-97 -3686 3728 0
-97 -3687 3729 0
-97 -3688 3730 0
-97 -3689 3731 0
-97 -3690 3732 0
-97 -3691 3733 0
-97 -3692 3734 0
-97 -3693 3735 0
-97 -3694 3736 0
-97 -3695 3737 0
-97 -3696 3738 0
-97 -3697 3739 0
-97 -3698 3740 0
-97 -3699 3741 0
-97 -3700 3742 0
-97 -3701 0
-98 3743 0
-3702 3743 0
-3703 3744 0
-3704 3745 0
-3705 3746 0
-3706 3747 0
-3707 3748 0
-3708 3749 0
-3709 3750 0
-3710 3751 0
-3711 3752 0
-3712 3753 0
-3713 3754 0
-3714 3755 0
-3715 3756 0
-3716 3757 0
-3717 3758 0
-3718 3759 0
-3719 3760 0
-3720 3761 0
-3721 3762 0
-3722 3763 0
-3723 3764 0
-3724 3765 0
-3725 3766 0
-3726 3767 0
-3727 3768 0
-3728 3769 0
-3729 3770 0
-3730 3771 0
-3731 3772 0
-3732 3773 0
-3733 3774 0
-3734 3775 0
-3735 3776 0
-3736 3777 0
-3737 3778 0
-3738 3779 0
-3739 3780 0
-3740 3781 0
-3741 3782 0
-3742 3783 0
-98 -3702 3744 0
-98 -3703 3745 0
-98 -3704 3746 0
-98 -3705 3747 0
-98 -3706 3748 0
-98 -3707 3749 0
-98 -3708 3750 0
-98 -3709 3751 0
-98 -3710 3752 0
-98 -3711 3753 0
-98 -3712 3754 0
-98 -3713 3755 0
-98 -3714 3756 0
-98 -3715 3757 0
-98 -3716 3758 0
-98 -3717 3759 0
-98 -3718 3760 0
-98 -3719 3761 0
-98 -3720 3762 0
-98 -3721 3763 0
-98 -3722 3764 0
-98 -3723 3765 0
-98 -3724 3766 0
-98 -3725 3767 0
-98 -3726 3768 0
-98 -3727 3769 0
-98 -3728 3770 0
-98 -3729 3771 0
-98 -3730 3772 0
-98 -3731 3773 0
-98 -3732 3774 0
-98 -3733 3775 0
-98 -3734 3776 0
-98 -3735 3777 0
-98 -3736 3778 0
-98 -3737 3779 0
-98 -3738 3780 0
-98 -3739 3781 0
-98 -3740 3782 0
-98 -3741 3783 0
-98 -3742 0
-99 3784 0
-3743 3784 0
-3744 3785 0
-3745 3786 0
-3746 3787 0
-3747 3788 0
-3748 3789 0
-3749 3790 0
-3750 3791 0
-3751 3792 0
-3752 3793 0
-3753 3794 0
-3754 3795 0
-3755 3796 0
-3756 3797 0
-3757 3798 0
-3758 3799 0
-3759 3800 0
-3760 3801 0
-3761 3802 0
-3762 3803 0
-3763 3804 0
-3764 3805 0
-3765 3806 0
-3766 3807 0
-3767 3808 0
-3768 3809 0
-3769 3810 0
-3770 3811 0
-3771 3812 0
-3772 3813 0
-3773 3814 0
-3774 3815 0
-3775 3816 0
-3776 3817 0
-3777 3818 0
-3778 3819 0
-3779 3820 0
-3780 3821 0
-3781 3822 0
-3782 3823 0
-3783 3824 0
-99 -3743 3785 0
-99 -3744 3786 0
-99 -3745 3787 0
-99 -3746 3788 0
-99 -3747 3789 0
-99 -3748 3790 0
-99 -3749 3791 0
-99 -3750 3792 0
-99 -3751 3793 0
-99 -3752 3794 0
-99 -3753 3795 0
-99 -3754 3796 0
-99 -3755 3797 0
-99 -3756 3798 0
-99 -3757 3799 0
-99 -3758 3800 0
-99 -3759 3801 0
-99 -3760 3802 0
-99 -3761 3803 0
-99 -3762 3804 0
-99 -3763 3805 0
-99 -3764 3806 0
-99 -3765 3807 0
-99 -3766 3808 0
-99 -3767 3809 0
-99 -3768 3810 0
-99 -3769 3811 0
-99 -3770 3812 0
-99 -3771 3813 0
-99 -3772 3814 0
-99 -3773 3815 0
-99 -3774 3816 0
-99 -3775 3817 0
-99 -3776 3818 0
-99 -3777 3819 0
-99 -3778 3820 0
-99 -3779 3821 0
-99 -3780 3822 0
-99 -3781 3823 0
-99 -3782 3824 0
-99 -3783 0
-100 3825 0
-3784 3825 0
-3785 3826 0
-3786 3827 0
-3787 3828 0
-3788 3829 0
-3789 3830 0
-3790 3831 0
-3791 3832 0
-3792 3833 0
-3793 3834 0
-3794 3835 0
-3795 3836 0
-3796 3837 0
-3797 3838 0
-3798 3839 0
-3799 3840 0
-3800 3841 0
-3801 3842 0
-3802 3843 0
-3803 3844 0
-3804 3845 0
-3805 3846 0
-3806 3847 0
-3807 3848 0
-3808 3849 0
-3809 3850 0
-3810 3851 0
-3811 3852 0
-3812 3853 0
-3813 3854 0
-3814 3855 0
-3815 3856 0
-3816 3857 0
-3817 3858 0
-3818 3859 0
-3819 3860 0
-3820 3861 0
-3821 3862 0
-3822 3863 0
-3823 3864 0
-3824 3865 0
-100 -3784 3826 0
-100 -3785 3827 0
-100 -3786 3828 0
-100 -3787 3829 0
-100 -3788 3830 0
-100 -3789 3831 0
-100 -3790 3832 0
-100 -3791 3833 0
-100 -3792 3834 0
-100 -3793 3835 0
-100 -3794 3836 0
-100 -3795 3837 0
-100 -3796 3838 0
-100 -3797 3839 0
-100 -3798 3840 0
-100 -3799 3841 0
-100 -3800 3842 0
-100 -3801 3843 0
-100 -3802 3844 0
-100 -3803 3845 0
-100 -3804 3846 0
-100 -3805 3847 0
-100 -3806 3848 0
-100 -3807 3849 0
-100 -3808 3850 0
-100 -3809 3851 0
-100 -3810 3852 0
-100 -3811 3853 0
-100 -3812 3854 0
-100 -3813 3855 0
-100 -3814 3856 0
-100 -3815 3857 0
-100 -3816 3858 0
-100 -3817 3859 0
-100 -3818 3860 0
-100 -3819 3861 0
-100 -3820 3862 0
-100 -3821 3863 0
-100 -3822 3864 0
-100 -3823 3865 0
-100 -3824 0
-101 3866 0
-3825 3866 0
-3826 3867 0
-3827 3868 0
-3828 3869 0
-3829 3870 0
-3830 3871 0
-3831 3872 0
-3832 3873 0
-3833 3874 0
-3834 3875 0
-3835 3876 0
-3836 3877 0
-3837 3878 0
-3838 3879 0
-3839 3880 0
-3840 3881 0
-3841 3882 0
-3842 3883 0
-3843 3884 0
-3844 3885 0
-3845 3886 0
-3846 3887 0
-3847 3888 0
-3848 3889 0
-3849 3890 0
-3850 3891 0
-3851 3892 0
-3852 3893 0
-3853 3894 0
-3854 3895 0
-3855 3896 0
-3856 3897 0
-3857 3898 0
-3858 3899 0
-3859 3900 0
-3860 3901 0
-3861 3902 0
-3862 3903 0
-3863 3904 0
-3864 3905 0
-3865 3906 0
-101 -3825 3867 0
-101 -3826 3868 0
-101 -3827 3869 0
-101 -3828 3870 0
-101 -3829 3871 0
-101 -3830 3872 0
-101 -3831 3873 0
-101 -3832 3874 0
-101 -3833 3875 0
-101 -3834 3876 0
-101 -3835 3877 0
-101 -3836 3878 0
-101 -3837 3879 0
-101 -3838 3880 0
-101 -3839 3881 0
-101 -3840 3882 0
-101 -3841 3883 0
-101 -3842 3884 0
-101 -3843 3885 0
-101 -3844 3886 0
-101 -3845 3887 0
-101 -3846 3888 0
-101 -3847 3889 0
-101 -3848 3890 0
-101 -3849 3891 0
-101 -3850 3892 0
-101 -3851 3893 0
-101 -3852 3894 0
-101 -3853 3895 0
-101 -3854 3896 0
-101 -3855 3897 0
-101 -3856 3898 0
-101 -3857 3899 0
-101 -3858 3900 0
-101 -3859 3901 0
-101 -3860 3902 0
-101 -3861 3903 0
-101 -3862 3904 0
-101 -3863 3905 0
-101 -3864 3906 0
-101 -3865 0
-102 3907 0
-3866 3907 0
-3867 3908 0
-3868 3909 0
-3869 3910 0
-3870 3911 0
-3871 3912 0
-3872 3913 0
-3873 3914 0
-3874 3915 0
-3875 3916 0
-3876 3917 0
-3877 3918 0
-3878 3919 0
-3879 3920 0
-3880 3921 0
-3881 3922 0
-3882 3923 0
-3883 3924 0
-3884 3925 0
-3885 3926 0
-3886 3927 0
-3887 3928 0
-3888 3929 0
-3889 3930 0
-3890 3931 0
-3891 3932 0
-3892 3933 0
-3893 3934 0
-3894 3935 0
-3895 3936 0
-3896 3937 0
-3897 3938 0
-3898 3939 0
-3899 3940 0
-3900 3941 0
-3901 3942 0
-3902 3943 0
-3903 3944 0
-3904 3945 0
-3905 3946 0
-3906 3947 0
-102 -3866 3908 0
-102 -3867 3909 0
-102 -3868 3910 0
-102 -3869 3911 0
-102 -3870 3912 0
-102 -3871 3913 0
-102 -3872 3914 0
-102 -3873 3915 0
-102 -3874 3916 0
-102 -3875 3917 0
-102 -3876 3918 0
-102 -3877 3919 0
-102 -3878 3920 0
-102 -3879 3921 0
-102 -3880 3922 0
-102 -3881 3923 0
-102 -3882 3924 0
-102 -3883 3925 0
-102 -3884 3926 0
-102 -3885 3927 0
-102 -3886 3928 0
-102 -3887 3929 0
-102 -3888 3930 0
-102 -3889 3931 0
-102 -3890 3932 0
-102 -3891 3933 0
-102 -3892 3934 0
-102 -3893 3935 0
-102 -3894 3936 0
-102 -3895 3937 0
-102 -3896 3938 0
-102 -3897 3939 0
-102 -3898 3940 0
-102 -3899 3941 0
-102 -3900 3942 0
-102 -3901 3943 0
-102 -3902 3944 0
-102 -3903 3945 0
-102 -3904 3946 0
-102 -3905 3947 0
-102 -3906 0
-103 3948 0
-3907 3948 0
-3908 3949 0
-3909 3950 0
-3910 3951 0
-3911 3952 0
-3912 3953 0
-3913 3954 0
-3914 3955 0
-3915 3956 0
-3916 3957 0
-3917 3958 0
-3918 3959 0
-3919 3960 0
-3920 3961 0
-3921 3962 0
-3922 3963 0
-3923 3964 0
-3924 3965 0
-3925 3966 0
-3926 3967 0
-3927 3968 0
-3928 3969 0
-3929 3970 0
-3930 3971 0
-3931 3972 0
-3932 3973 0
-3933 3974 0
-3934 3975 0
-3935 3976 0
-3936 3977 0
-3937 3978 0
-3938 3979 0
-3939 3980 0
-3940 3981 0
-3941 3982 0
-3942 3983 0
-3943 3984 0
-3944 3985 0
-3945 3986 0
-3946 3987 0
-3947 3988 0
-103 -3907 3949 0
-103 -3908 3950 0
-103 -3909 3951 0
-103 -3910 3952 0
-103 -3911 3953 0
-103 -3912 3954 0
-103 -3913 3955 0
-103 -3914 3956 0
-103 -3915 3957 0
-103 -3916 3958 0
-103 -3917 3959 0
-103 -3918 3960 0
-103 -3919 3961 0
-103 -3920 3962 0
-103 -3921 3963 0
-103 -3922 3964 0
-103 -3923 3965 0
-103 -3924 3966 0
-103 -3925 3967 0
-103 -3926 3968 0
-103 -3927 3969 0
-103 -3928 3970 0
-103 -3929 3971 0
-103 -3930 3972 0
-103 -3931 3973 0
-103 -3932 3974 0
-103 -3933 3975 0
-103 -3934 3976 0
-103 -3935 3977 0
-103 -3936 3978 0
-103 -3937 3979 0
-103 -3938 3980 0
-103 -3939 3981 0
-103 -3940 3982 0
-103 -3941 3983 0
-103 -3942 3984 0
-103 -3943 3985 0
-103 -3944 3986 0
-103 -3945 3987 0
-103 -3946 3988 0
-103 -3947 0
-104 3989 0
-3948 3989 0
-3949 3990 0
-3950 3991 0
-3951 3992 0
-3952 3993 0
-3953 3994 0
-3954 3995 0
-3955 3996 0
-3956 3997 0
-3957 3998 0
-3958 3999 0
-3959 4000 0
-3960 4001 0
-3961 4002 0
-3962 4003 0
-3963 4004 0
-3964 4005 0
-3965 4006 0
-3966 4007 0
-3967 4008 0
-3968 4009 0
-3969 4010 0
-3970 4011 0
-3971 4012 0
-3972 4013 0
-3973 4014 0
-3974 4015 0
-3975 4016 0
-3976 4017 0
-3977 4018 0
-3978 4019 0
-3979 4020 0
-3980 4021 0
-3981 4022 0
-3982 4023 0
-3983 4024 0
-3984 4025 0
-3985 4026 0
-3986 4027 0
-3987 4028 0
-3988 4029 0
-104 -3948 3990 0
-104 -3949 3991 0
-104 -3950 3992 0
-104 -3951 3993 0
-104 -3952 3994 0
-104 -3953 3995 0
-104 -3954 3996 0
-104 -3955 3997 0
-104 -3956 3998 0
-104 -3957 3999 0
-104 -3958 4000 0
-104 -3959 4001 0
-104 -3960 4002 0
-104 -3961 4003 0
-104 -3962 4004 0
-104 -3963 4005 0
-104 -3964 4006 0
-104 -3965 4007 0
-104 -3966 4008 0
-104 -3967 4009 0
-104 -3968 4010 0
-104 -3969 4011 0
-104 -3970 4012 0
-104 -3971 4013 0
-104 -3972 4014 0
-104 -3973 4015 0
-104 -3974 4016 0
-104 -3975 4017 0
-104 -3976 4018 0
-104 -3977 4019 0
-104 -3978 4020 0
-104 -3979 4021 0
-104 -3980 4022 0
-104 -3981 4023 0
-104 -3982 4024 0
-104 -3983 4025 0
-104 -3984 4026 0
-104 -3985 4027 0
-104 -3986 4028 0
-104 -3987 4029 0
-104 -3988 0
-105 4030 0
-3989 4030 0
-3990 4031 0
-3991 4032 0
-3992 4033 0
-3993 4034 0
-3994 4035 0
-3995 4036 0
-3996 4037 0
-3997 4038 0
-3998 4039 0
-3999 4040 0
-4000 4041 0
-4001 4042 0
-4002 4043 0
-4003 4044 0
-4004 4045 0
-4005 4046 0
-4006 4047 0
-4007 4048 0
-4008 4049 0
-4009 4050 0
-4010 4051 0
-4011 4052 0
-4012 4053 0
-4013 4054 0
-4014 4055 0
-4015 4056 0
-4016 4057 0
-4017 4058 0
-4018 4059 0
-4019 4060 0
-4020 4061 0
-4021 4062 0
-4022 4063 0
-4023 4064 0
-4024 4065 0
-4025 4066 0
-4026 4067 0
-4027 4068 0
-4028 4069 0
-4029 4070 0
-105 -3989 4031 0
-105 -3990 4032 0
-105 -3991 4033 0
-105 -3992 4034 0
-105 -3993 4035 0
-105 -3994 4036 0
-105 -3995 4037 0
-105 -3996 4038 0
-105 -3997 4039 0
-105 -3998 4040 0
-105 -3999 4041 0
-105 -4000 4042 0
-105 -4001 4043 0
-105 -4002 4044 0
-105 -4003 4045 0
-105 -4004 4046 0
-105 -4005 4047 0
-105 -4006 4048 0
-105 -4007 4049 0
-105 -4008 4050 0
-105 -4009 4051 0
-105 -4010 4052 0
-105 -4011 4053 0
-105 -4012 4054 0
-105 -4013 4055 0
-105 -4014 4056 0
-105 -4015 4057 0
-105 -4016 4058 0
-105 -4017 4059 0
-105 -4018 4060 0
-105 -4019 4061 0
-105 -4020 4062 0
-105 -4021 4063 0
-105 -4022 4064 0
-105 -4023 4065 0
-105 -4024 4066 0
-105 -4025 4067 0
-105 -4026 4068 0
-105 -4027 4069 0
-105 -4028 4070 0
-105 -4029 0
-106 4071 0
-4030 4071 0
-4031 4072 0
-4032 4073 0
-4033 4074 0
-4034 4075 0
-4035 4076 0
-4036 4077 0
-4037 4078 0
-4038 4079 0
-4039 4080 0
-4040 4081 0
-4041 4082 0
-4042 4083 0
-4043 4084 0
-4044 4085 0
-4045 4086 0
-4046 4087 0
-4047 4088 0
-4048 4089 0
-4049 4090 0
-4050 4091 0
-4051 4092 0
-4052 4093 0
-4053 4094 0
-4054 4095 0
-4055 4096 0
-4056 4097 0
-4057 4098 0
-4058 4099 0
-4059 4100 0
-4060 4101 0
-4061 4102 0
-4062 4103 0
-4063 4104 0
-4064 4105 0
-4065 4106 0
-4066 4107 0
-4067 4108 0
-4068 4109 0
-4069 4110 0
-4070 4111 0
-106 -4030 4072 0
-106 -4031 4073 0
-106 -4032 4074 0
-106 -4033 4075 0
-106 -4034 4076 0
-106 -4035 4077 0
-106 -4036 4078 0
-106 -4037 4079 0
-106 -4038 4080 0
-106 -4039 4081 0
-106 -4040 4082 0
-106 -4041 4083 0
-106 -4042 4084 0
-106 -4043 4085 0
-106 -4044 4086 0
-106 -4045 4087 0
-106 -4046 4088 0
-106 -4047 4089 0
-106 -4048 4090 0
-106 -4049 4091 0
-106 -4050 4092 0
-106 -4051 4093 0
-106 -4052 4094 0
-106 -4053 4095 0
-106 -4054 4096 0
-106 -4055 4097 0
-106 -4056 4098 0
-106 -4057 4099 0
-106 -4058 4100 0
-106 -4059 4101 0
-106 -4060 4102 0
-106 -4061 4103 0
-106 -4062 4104 0
-106 -4063 4105 0
-106 -4064 4106 0
-106 -4065 4107 0
-106 -4066 4108 0
-106 -4067 4109 0
-106 -4068 4110 0
-106 -4069 4111 0
-106 -4070 0
-107 4112 0
-4071 4112 0
-4072 4113 0
-4073 4114 0
-4074 4115 0
-4075 4116 0
-4076 4117 0
-4077 4118 0
-4078 4119 0
-4079 4120 0
-4080 4121 0
-4081 4122 0
-4082 4123 0
-4083 4124 0
-4084 4125 0
-4085 4126 0
-4086 4127 0
-4087 4128 0
-4088 4129 0
-4089 4130 0
-4090 4131 0
-4091 4132 0
-4092 4133 0
-4093 4134 0
-4094 4135 0
-4095 4136 0
-4096 4137 0
-4097 4138 0
-4098 4139 0
-4099 4140 0
-4100 4141 0
-4101 4142 0
-4102 4143 0
-4103 4144 0
-4104 4145 0
-4105 4146 0
-4106 4147 0
-4107 4148 0
-4108 4149 0
-4109 4150 0
-4110 4151 0
-4111 4152 0
-107 -4071 4113 0
-107 -4072 4114 0
-107 -4073 4115 0
-107 -4074 4116 0
-107 -4075 4117 0
-107 -4076 4118 0
-107 -4077 4119 0
-107 -4078 4120 0
-107 -4079 4121 0
-107 -4080 4122 0
-107 -4081 4123 0
-107 -4082 4124 0
-107 -4083 4125 0
-107 -4084 4126 0
-107 -4085 4127 0
-107 -4086 4128 0
-107 -4087 4129 0
-107 -4088 4130 0
-107 -4089 4131 0
-107 -4090 4132 0
-107 -4091 4133 0
-107 -4092 4134 0
-107 -4093 4135 0
-107 -4094 4136 0
-107 -4095 4137 0
-107 -4096 4138 0
-107 -4097 4139 0
-107 -4098 4140 0
-107 -4099 4141 0
-107 -4100 4142 0
-107 -4101 4143 0
-107 -4102 4144 0
-107 -4103 4145 0
-107 -4104 4146 0
-107 -4105 4147 0
-107 -4106 4148 0
-107 -4107 4149 0
-107 -4108 4150 0
-107 -4109 4151 0
-107 -4110 4152 0
-107 -4111 0
-108 4153 0
-4112 4153 0
-4113 4154 0
-4114 4155 0
-4115 4156 0
-4116 4157 0
-4117 4158 0
-4118 4159 0
-4119 4160 0
-4120 4161 0
-4121 4162 0
-4122 4163 0
-4123 4164 0
-4124 4165 0
-4125 4166 0
-4126 4167 0
-4127 4168 0
-4128 4169 0
-4129 4170 0
-4130 4171 0
-4131 4172 0
-4132 4173 0
-4133 4174 0
-4134 4175 0
-4135 4176 0
-4136 4177 0
-4137 4178 0
-4138 4179 0
-4139 4180 0
-4140 4181 0
-4141 4182 0
-4142 4183 0
-4143 4184 0
-4144 4185 0
-4145 4186 0
-4146 4187 0
-4147 4188 0
-4148 4189 0
-4149 4190 0
-4150 4191 0
-4151 4192 0
-4152 4193 0
-108 -4112 4154 0
-108 -4113 4155 0
-108 -4114 4156 0
-108 -4115 4157 0
-108 -4116 4158 0
-108 -4117 4159 0
-108 -4118 4160 0
-108 -4119 4161 0
-108 -4120 4162 0
-108 -4121 4163 0
-108 -4122 4164 0
-108 -4123 4165 0
-108 -4124 4166 0
-108 -4125 4167 0
-108 -4126 4168 0
-108 -4127 4169 0
-108 -4128 4170 0
-108 -4129 4171 0
-108 -4130 4172 0
-108 -4131 4173 0
-108 -4132 4174 0
-108 -4133 4175 0
-108 -4134 4176 0
-108 -4135 4177 0
-108 -4136 4178 0
-108 -4137 4179 0
-108 -4138 4180 0
-108 -4139 4181 0
-108 -4140 4182 0
-108 -4141 4183 0
-108 -4142 4184 0
-108 -4143 4185 0
-108 -4144 4186 0
-108 -4145 4187 0
-108 -4146 4188 0
-108 -4147 4189 0
-108 -4148 4190 0
-108 -4149 4191 0
-108 -4150 4192 0
-108 -4151 4193 0
-108 -4152 0
-109 4194 0
-4153 4194 0
-4154 4195 0
-4155 4196 0
-4156 4197 0
-4157 4198 0
-4158 4199 0
-4159 4200 0
-4160 4201 0
-4161 4202 0
-4162 4203 0
-4163 4204 0
-4164 4205 0
-4165 4206 0
-4166 4207 0
-4167 4208 0
-4168 4209 0
-4169 4210 0
-4170 4211 0
-4171 4212 0
-4172 4213 0
-4173 4214 0
-4174 4215 0
-4175 4216 0
-4176 4217 0
-4177 4218 0
-4178 4219 0
-4179 4220 0
-4180 4221 0
-4181 4222 0
-4182 4223 0
-4183 4224 0
-4184 4225 0
-4185 4226 0
-4186 4227 0
-4187 4228 0
-4188 4229 0
-4189 4230 0
-4190 4231 0
-4191 4232 0
-4192 4233 0
-4193 4234 0
-109 -4153 4195 0
-109 -4154 4196 0
-109 -4155 4197 0
-109 -4156 4198 0
-109 -4157 4199 0
-109 -4158 4200 0
-109 -4159 4201 0
-109 -4160 4202 0
-109 -4161 4203 0
-109 -4162 4204 0
-109 -4163 4205 0
-109 -4164 4206 0
-109 -4165 4207 0
-109 -4166 4208 0
-109 -4167 4209 0
-109 -4168 4210 0
-109 -4169 4211 0
-109 -4170 4212 0
-109 -4171 4213 0
-109 -4172 4214 0
-109 -4173 4215 0
-109 -4174 4216 0
-109 -4175 4217 0
-109 -4176 4218 0
-109 -4177 4219 0
-109 -4178 4220 0
-109 -4179 4221 0
-109 -4180 4222 0
-109 -4181 4223 0
-109 -4182 4224 0
-109 -4183 4225 0
-109 -4184 4226 0
-109 -4185 4227 0
-109 -4186 4228 0
-109 -4187 4229 0
-109 -4188 4230 0
-109 -4189 4231 0
-109 -4190 4232 0
-109 -4191 4233 0
-109 -4192 4234 0
-109 -4193 0
-110 4235 0
-4194 4235 0
-4195 4236 0
-4196 4237 0
-4197 4238 0
-4198 4239 0
-4199 4240 0
-4200 4241 0
-4201 4242 0
-4202 4243 0
-4203 4244 0
-4204 4245 0
-4205 4246 0
-4206 4247 0
-4207 4248 0
-4208 4249 0
-4209 4250 0
-4210 4251 0
-4211 4252 0
-4212 4253 0
-4213 4254 0
-4214 4255 0
-4215 4256 0
-4216 4257 0
-4217 4258 0
-4218 4259 0
-4219 4260 0
-4220 4261 0
-4221 4262 0
-4222 4263 0
-4223 4264 0
-4224 4265 0
-4225 4266 0
-4226 4267 0
-4227 4268 0
-4228 4269 0
-4229 4270 0
-4230 4271 0
-4231 4272 0
-4232 4273 0
-4233 4274 0
-4234 4275 0
-110 -4194 4236 0
-110 -4195 4237 0
-110 -4196 4238 0
-110 -4197 4239 0
-110 -4198 4240 0
-110 -4199 4241 0
-110 -4200 4242 0
-110 -4201 4243 0
-110 -4202 4244 0
-110 -4203 4245 0
-110 -4204 4246 0
-110 -4205 4247 0
-110 -4206 4248 0
-110 -4207 4249 0
-110 -4208 4250 0
-110 -4209 4251 0
-110 -4210 4252 0
-110 -4211 4253 0
-110 -4212 4254 0
-110 -4213 4255 0
-110 -4214 4256 0
-110 -4215 4257 0
-110 -4216 4258 0
-110 -4217 4259 0
-110 -4218 4260 0
-110 -4219 4261 0
-110 -4220 4262 0
-110 -4221 4263 0
-110 -4222 4264 0
-110 -4223 4265 0
-110 -4224 4266 0
-110 -4225 4267 0
-110 -4226 4268 0
-110 -4227 4269 0
-110 -4228 4270 0
-110 -4229 4271 0
-110 -4230 4272 0
-110 -4231 4273 0
-110 -4232 4274 0
-110 -4233 4275 0
-110 -4234 0
-111 4276 0
-4235 4276 0
-4236 4277 0
-4237 4278 0
-4238 4279 0
-4239 4280 0
-4240 4281 0
-4241 4282 0
-4242 4283 0
-4243 4284 0
-4244 4285 0
-4245 4286 0
-4246 4287 0
-4247 4288 0
-4248 4289 0
-4249 4290 0
-4250 4291 0
-4251 4292 0
-4252 4293 0
-4253 4294 0
-4254 4295 0
-4255 4296 0
-4256 4297 0
-4257 4298 0
-4258 4299 0
-4259 4300 0
-4260 4301 0
-4261 4302 0
-4262 4303 0
-4263 4304 0
-4264 4305 0
-4265 4306 0
-4266 4307 0
-4267 4308 0
-4268 4309 0
-4269 4310 0
-4270 4311 0
-4271 4312 0
-4272 4313 0
-4273 4314 0
-4274 4315 0
-4275 4316 0
-111 -4235 4277 0
-111 -4236 4278 0
-111 -4237 4279 0
-111 -4238 4280 0
-111 -4239 4281 0
-111 -4240 4282 0
-111 -4241 4283 0
-111 -4242 4284 0
-111 -4243 4285 0
-111 -4244 4286 0
-111 -4245 4287 0
-111 -4246 4288 0
-111 -4247 4289 0
-111 -4248 4290 0
-111 -4249 4291 0
-111 -4250 4292 0
-111 -4251 4293 0
-111 -4252 4294 0
-111 -4253 4295 0
-111 -4254 4296 0
-111 -4255 4297 0
-111 -4256 4298 0
-111 -4257 4299 0
-111 -4258 4300 0
-111 -4259 4301 0
-111 -4260 4302 0
-111 -4261 4303 0
-111 -4262 4304 0
-111 -4263 4305 0
-111 -4264 4306 0
-111 -4265 4307 0
-111 -4266 4308 0
-111 -4267 4309 0
-111 -4268 4310 0
-111 -4269 4311 0
-111 -4270 4312 0
-111 -4271 4313 0
-111 -4272 4314 0
-111 -4273 4315 0
-111 -4274 4316 0
-111 -4275 0
-112 4317 0
-4276 4317 0
-4277 4318 0
-4278 4319 0
-4279 4320 0
-4280 4321 0
-4281 4322 0
-4282 4323 0
-4283 4324 0
-4284 4325 0
-4285 4326 0
-4286 4327 0
-4287 4328 0
-4288 4329 0
-4289 4330 0
-4290 4331 0
-4291 4332 0
-4292 4333 0
-4293 4334 0
-4294 4335 0
-4295 4336 0
-4296 4337 0
-4297 4338 0
-4298 4339 0
-4299 4340 0
-4300 4341 0
-4301 4342 0
-4302 4343 0
-4303 4344 0
-4304 4345 0
-4305 4346 0
-4306 4347 0
-4307 4348 0
-4308 4349 0
-4309 4350 0
-4310 4351 0
-4311 4352 0
-4312 4353 0
-4313 4354 0
-4314 4355 0
-4315 4356 0
-4316 4357 0
-112 -4276 4318 0
-112 -4277 4319 0
-112 -4278 4320 0
-112 -4279 4321 0
-112 -4280 4322 0
-112 -4281 4323 0
-112 -4282 4324 0
-112 -4283 4325 0
-112 -4284 4326 0
-112 -4285 4327 0
-112 -4286 4328 0
-112 -4287 4329 0
-112 -4288 4330 0
-112 -4289 4331 0
-112 -4290 4332 0
-112 -4291 4333 0
-112 -4292 4334 0
-112 -4293 4335 0
-112 -4294 4336 0
-112 -4295 4337 0
-112 -4296 4338 0
-112 -4297 4339 0
-112 -4298 4340 0
-112 -4299 4341 0
-112 -4300 4342 0
-112 -4301 4343 0
-112 -4302 4344 0
-112 -4303 4345 0
-112 -4304 4346 0
-112 -4305 4347 0
-112 -4306 4348 0
-112 -4307 4349 0
-112 -4308 4350 0
-112 -4309 4351 0
-112 -4310 4352 0
-112 -4311 4353 0
-112 -4312 4354 0
-112 -4313 4355 0
-112 -4314 4356 0
-112 -4315 4357 0
-112 -4316 0
-113 4358 0
-4317 4358 0
-4318 4359 0
-4319 4360 0
-4320 4361 0
-4321 4362 0
-4322 4363 0
-4323 4364 0
-4324 4365 0
-4325 4366 0
-4326 4367 0
-4327 4368 0
-4328 4369 0
-4329 4370 0
-4330 4371 0
-4331 4372 0
-4332 4373 0
-4333 4374 0
-4334 4375 0
-4335 4376 0
-4336 4377 0
-4337 4378 0
-4338 4379 0
-4339 4380 0
-4340 4381 0
-4341 4382 0
-4342 4383 0
-4343 4384 0
-4344 4385 0
-4345 4386 0
-4346 4387 0
-4347 4388 0
-4348 4389 0
-4349 4390 0
-4350 4391 0
-4351 4392 0
-4352 4393 0
-4353 4394 0
-4354 4395 0
-4355 4396 0
-4356 4397 0
-4357 4398 0
-113 -4317 4359 0
-113 -4318 4360 0
-113 -4319 4361 0
-113 -4320 4362 0
-113 -4321 4363 0
-113 -4322 4364 0
-113 -4323 4365 0
-113 -4324 4366 0
-113 -4325 4367 0
-113 -4326 4368 0
-113 -4327 4369 0
-113 -4328 4370 0
-113 -4329 4371 0
-113 -4330 4372 0
-113 -4331 4373 0
-113 -4332 4374 0
-113 -4333 4375 0
-113 -4334 4376 0
-113 -4335 4377 0
-113 -4336 4378 0
-113 -4337 4379 0
-113 -4338 4380 0
-113 -4339 4381 0
-113 -4340 4382 0
-113 -4341 4383 0
-113 -4342 4384 0
-113 -4343 4385 0
-113 -4344 4386 0
-113 -4345 4387 0
-113 -4346 4388 0
-113 -4347 4389 0
-113 -4348 4390 0
-113 -4349 4391 0
-113 -4350 4392 0
-113 -4351 4393 0
-113 -4352 4394 0
-113 -4353 4395 0
-113 -4354 4396 0
-113 -4355 4397 0
-113 -4356 4398 0
-113 -4357 0
-114 4399 0
-4358 4399 0
-4359 4400 0
-4360 4401 0
-4361 4402 0
-4362 4403 0
-4363 4404 0
-4364 4405 0
-4365 4406 0
-4366 4407 0
-4367 4408 0
-4368 4409 0
-4369 4410 0
-4370 4411 0
-4371 4412 0
-4372 4413 0
-4373 4414 0
-4374 4415 0
-4375 4416 0
-4376 4417 0
-4377 4418 0
-4378 4419 0
-4379 4420 0
-4380 4421 0
-4381 4422 0
-4382 4423 0
-4383 4424 0
-4384 4425 0
-4385 4426 0
-4386 4427 0
-4387 4428 0
-4388 4429 0
-4389 4430 0
-4390 4431 0
-4391 4432 0
-4392 4433 0
-4393 4434 0
-4394 4435 0
-4395 4436 0
-4396 4437 0
-4397 4438 0
-4398 4439 0
-114 -4358 4400 0
-114 -4359 4401 0
-114 -4360 4402 0
-114 -4361 4403 0
-114 -4362 4404 0
-114 -4363 4405 0
-114 -4364 4406 0
-114 -4365 4407 0
-114 -4366 4408 0
-114 -4367 4409 0
-114 -4368 4410 0
-114 -4369 4411 0
-114 -4370 4412 0
-114 -4371 4413 0
-114 -4372 4414 0
-114 -4373 4415 0
-114 -4374 4416 0
-114 -4375 4417 0
-114 -4376 4418 0
-114 -4377 4419 0
-114 -4378 4420 0
-114 -4379 4421 0
-114 -4380 4422 0
-114 -4381 4423 0
-114 -4382 4424 0
-114 -4383 4425 0
-114 -4384 4426 0
-114 -4385 4427 0
-114 -4386 4428 0
-114 -4387 4429 0
-114 -4388 4430 0
-114 -4389 4431 0
-114 -4390 4432 0
-114 -4391 4433 0
-114 -4392 4434 0
-114 -4393 4435 0
-114 -4394 4436 0
-114 -4395 4437 0
-114 -4396 4438 0
-114 -4397 4439 0
-114 -4398 0
-115 4440 0
-4399 4440 0
-4400 4441 0
-4401 4442 0
-4402 4443 0
-4403 4444 0
-4404 4445 0
-4405 4446 0
-4406 4447 0
-4407 4448 0
-4408 4449 0
-4409 4450 0
-4410 4451 0
-4411 4452 0
-4412 4453 0
-4413 4454 0
-4414 4455 0
-4415 4456 0
-4416 4457 0
-4417 4458 0
-4418 4459 0
-4419 4460 0
-4420 4461 0
-4421 4462 0
-4422 4463 0
-4423 4464 0
-4424 4465 0
-4425 4466 0
-4426 4467 0
-4427 4468 0
-4428 4469 0
-4429 4470 0
-4430 4471 0
-4431 4472 0
-4432 4473 0
-4433 4474 0
-4434 4475 0
-4435 4476 0
-4436 4477 0
-4437 4478 0
-4438 4479 0
-4439 4480 0
-115 -4399 4441 0
-115 -4400 4442 0
-115 -4401 4443 0
-115 -4402 4444 0
-115 -4403 4445 0
-115 -4404 4446 0
-115 -4405 4447 0
-115 -4406 4448 0
-115 -4407 4449 0
-115 -4408 4450 0
-115 -4409 4451 0
-115 -4410 4452 0
-115 -4411 4453 0
-115 -4412 4454 0
-115 -4413 4455 0
-115 -4414 4456 0
-115 -4415 4457 0
-115 -4416 4458 0
-115 -4417 4459 0
-115 -4418 4460 0
-115 -4419 4461 0
-115 -4420 4462 0
-115 -4421 4463 0
-115 -4422 4464 0
-115 -4423 4465 0
-115 -4424 4466 0
-115 -4425 4467 0
-115 -4426 4468 0
-115 -4427 4469 0
-115 -4428 4470 0
-115 -4429 4471 0
-115 -4430 4472 0
-115 -4431 4473 0
-115 -4432 4474 0
-115 -4433 4475 0
-115 -4434 4476 0
-115 -4435 4477 0
-115 -4436 4478 0
-115 -4437 4479 0
-115 -4438 4480 0
-115 -4439 0
-116 4481 0
-4440 4481 0
-4441 4482 0
-4442 4483 0
-4443 4484 0
-4444 4485 0
-4445 4486 0
-4446 4487 0
-4447 4488 0
-4448 4489 0
-4449 4490 0
-4450 4491 0
-4451 4492 0
-4452 4493 0
-4453 4494 0
-4454 4495 0
-4455 4496 0
-4456 4497 0
-4457 4498 0
-4458 4499 0
-4459 4500 0
-4460 4501 0
-4461 4502 0
-4462 4503 0
-4463 4504 0
-4464 4505 0
-4465 4506 0
-4466 4507 0
-4467 4508 0
-4468 4509 0
-4469 4510 0
-4470 4511 0
-4471 4512 0
-4472 4513 0
-4473 4514 0
-4474 4515 0
-4475 4516 0
-4476 4517 0
-4477 4518 0
-4478 4519 0
-4479 4520 0
-4480 4521 0
-116 -4440 4482 0
-116 -4441 4483 0
-116 -4442 4484 0
-116 -4443 4485 0
-116 -4444 4486 0
-116 -4445 4487 0
-116 -4446 4488 0
-116 -4447 4489 0
-116 -4448 4490 0
-116 -4449 4491 0
-116 -4450 4492 0
-116 -4451 4493 0
-116 -4452 4494 0
-116 -4453 4495 0
-116 -4454 4496 0
-116 -4455 4497 0
-116 -4456 4498 0
-116 -4457 4499 0
-116 -4458 4500 0
-116 -4459 4501 0
-116 -4460 4502 0
-116 -4461 4503 0
-116 -4462 4504 0
-116 -4463 4505 0
-116 -4464 4506 0
-116 -4465 4507 0
-116 -4466 4508 0
-116 -4467 4509 0
-116 -4468 4510 0
-116 -4469 4511 0
-116 -4470 4512 0
-116 -4471 4513 0
-116 -4472 4514 0
-116 -4473 4515 0
-116 -4474 4516 0
-116 -4475 4517 0
-116 -4476 4518 0
-116 -4477 4519 0
-116 -4478 4520 0
-116 -4479 4521 0
-116 -4480 0
-117 4522 0
-4481 4522 0
-4482 4523 0
-4483 4524 0
-4484 4525 0
-4485 4526 0
-4486 4527 0
-4487 4528 0
-4488 4529 0
-4489 4530 0
-4490 4531 0
-4491 4532 0
-4492 4533 0
-4493 4534 0
-4494 4535 0
-4495 4536 0
-4496 4537 0
-4497 4538 0
-4498 4539 0
-4499 4540 0
-4500 4541 0
-4501 4542 0
-4502 4543 0
-4503 4544 0
-4504 4545 0
-4505 4546 0
-4506 4547 0
-4507 4548 0
-4508 4549 0
-4509 4550 0
-4510 4551 0
-4511 4552 0
-4512 4553 0
-4513 4554 0
-4514 4555 0
-4515 4556 0
-4516 4557 0
-4517 4558 0
-4518 4559 0
-4519 4560 0
-4520 4561 0
-4521 4562 0
-117 -4481 4523 0
-117 -4482 4524 0
-117 -4483 4525 0
-117 -4484 4526 0
-117 -4485 4527 0
-117 -4486 4528 0
-117 -4487 4529 0
-117 -4488 4530 0
-117 -4489 4531 0
-117 -4490 4532 0
-117 -4491 4533 0
-117 -4492 4534 0
-117 -4493 4535 0
-117 -4494 4536 0
-117 -4495 4537 0
-117 -4496 4538 0
-117 -4497 4539 0
-117 -4498 4540 0
-117 -4499 4541 0
-117 -4500 4542 0
-117 -4501 4543 0
-117 -4502 4544 0
-117 -4503 4545 0
-117 -4504 4546 0
-117 -4505 4547 0
-117 -4506 4548 0
-117 -4507 4549 0
-117 -4508 4550 0
-117 -4509 4551 0
-117 -4510 4552 0
-117 -4511 4553 0
-117 -4512 4554 0
-117 -4513 4555 0
-117 -4514 4556 0
-117 -4515 4557 0
-117 -4516 4558 0
-117 -4517 4559 0
-117 -4518 4560 0
-117 -4519 4561 0
-117 -4520 4562 0
-117 -4521 0
-118 4563 0
-4522 4563 0
-4523 4564 0
-4524 4565 0
-4525 4566 0
-4526 4567 0
-4527 4568 0
-4528 4569 0
-4529 4570 0
-4530 4571 0
-4531 4572 0
-4532 4573 0
-4533 4574 0
-4534 4575 0
-4535 4576 0
-4536 4577 0
-4537 4578 0
-4538 4579 0
-4539 4580 0
-4540 4581 0
-4541 4582 0
-4542 4583 0
-4543 4584 0
-4544 4585 0
-4545 4586 0
-4546 4587 0
-4547 4588 0
-4548 4589 0
-4549 4590 0
-4550 4591 0
-4551 4592 0
-4552 4593 0
-4553 4594 0
-4554 4595 0
-4555 4596 0
-4556 4597 0
-4557 4598 0
-4558 4599 0
-4559 4600 0
-4560 4601 0
-4561 4602 0
-4562 4603 0
-118 -4522 4564 0
-118 -4523 4565 0
-118 -4524 4566 0
-118 -4525 4567 0
-118 -4526 4568 0
-118 -4527 4569 0
-118 -4528 4570 0
-118 -4529 4571 0
-118 -4530 4572 0
-118 -4531 4573 0
-118 -4532 4574 0
-118 -4533 4575 0
-118 -4534 4576 0
-118 -4535 4577 0
-118 -4536 4578 0
-118 -4537 4579 0
-118 -4538 4580 0
-118 -4539 4581 0
-118 -4540 4582 0
-118 -4541 4583 0
-118 -4542 4584 0
-118 -4543 4585 0
-118 -4544 4586 0
-118 -4545 4587 0
-118 -4546 4588 0
-118 -4547 4589 0
-118 -4548 4590 0
-118 -4549 4591 0
-118 -4550 4592 0
-118 -4551 4593 0
-118 -4552 4594 0
-118 -4553 4595 0
-118 -4554 4596 0
-118 -4555 4597 0
-118 -4556 4598 0
-118 -4557 4599 0
-118 -4558 4600 0
-118 -4559 4601 0
-118 -4560 4602 0
-118 -4561 4603 0
-118 -4562 0
-119 4604 0
-4563 4604 0
-4564 4605 0
-4565 4606 0
-4566 4607 0
-4567 4608 0
-4568 4609 0
-4569 4610 0
-4570 4611 0
-4571 4612 0
-4572 4613 0
-4573 4614 0
-4574 4615 0
-4575 4616 0
-4576 4617 0
-4577 4618 0
-4578 4619 0
-4579 4620 0
-4580 4621 0
-4581 4622 0
-4582 4623 0
-4583 4624 0
-4584 4625 0
-4585 4626 0
-4586 4627 0
-4587 4628 0
-4588 4629 0
-4589 4630 0
-4590 4631 0
-4591 4632 0
-4592 4633 0
-4593 4634 0
-4594 4635 0
-4595 4636 0
-4596 4637 0
-4597 4638 0
-4598 4639 0
-4599 4640 0
-4600 4641 0
-4601 4642 0
-4602 4643 0
-4603 4644 0
-119 -4563 4605 0
-119 -4564 4606 0
-119 -4565 4607 0
-119 -4566 4608 0
-119 -4567 4609 0
-119 -4568 4610 0
-119 -4569 4611 0
-119 -4570 4612 0
-119 -4571 4613 0
-119 -4572 4614 0
-119 -4573 4615 0
-119 -4574 4616 0
-119 -4575 4617 0
-119 -4576 4618 0
-119 -4577 4619 0
-119 -4578 4620 0
-119 -4579 4621 0
-119 -4580 4622 0
-119 -4581 4623 0
-119 -4582 4624 0
-119 -4583 4625 0
-119 -4584 4626 0
-119 -4585 4627 0
-119 -4586 4628 0
-119 -4587 4629 0
-119 -4588 4630 0
-119 -4589 4631 0
-119 -4590 4632 0
-119 -4591 4633 0
-119 -4592 4634 0
-119 -4593 4635 0
-119 -4594 4636 0
-119 -4595 4637 0
-119 -4596 4638 0
-119 -4597 4639 0
-119 -4598 4640 0
-119 -4599 4641 0
-119 -4600 4642 0
-119 -4601 4643 0
-119 -4602 4644 0
-119 -4603 0
-120 4645 0
-4604 4645 0
-4605 4646 0
-4606 4647 0
-4607 4648 0
-4608 4649 0
-4609 4650 0
-4610 4651 0
-4611 4652 0
-4612 4653 0
-4613 4654 0
-4614 4655 0
-4615 4656 0
-4616 4657 0
-4617 4658 0
-4618 4659 0
-4619 4660 0
-4620 4661 0
-4621 4662 0
-4622 4663 0
-4623 4664 0
-4624 4665 0
-4625 4666 0
-4626 4667 0
-4627 4668 0
-4628 4669 0
-4629 4670 0
-4630 4671 0
-4631 4672 0
-4632 4673 0
-4633 4674 0
-4634 4675 0
-4635 4676 0
-4636 4677 0
-4637 4678 0
-4638 4679 0
-4639 4680 0
-4640 4681 0
-4641 4682 0
-4642 4683 0
-4643 4684 0
-4644 4685 0
-120 -4604 4646 0
-120 -4605 4647 0
-120 -4606 4648 0
-120 -4607 4649 0
-120 -4608 4650 0
-120 -4609 4651 0
-120 -4610 4652 0
-120 -4611 4653 0
-120 -4612 4654 0
-120 -4613 4655 0
-120 -4614 4656 0
-120 -4615 4657 0
-120 -4616 4658 0
-120 -4617 4659 0
-120 -4618 4660 0
-120 -4619 4661 0
-120 -4620 4662 0
-120 -4621 4663 0
-120 -4622 4664 0
-120 -4623 4665 0
-120 -4624 4666 0
-120 -4625 4667 0
-120 -4626 4668 0
-120 -4627 4669 0
-120 -4628 4670 0
-120 -4629 4671 0
-120 -4630 4672 0
-120 -4631 4673 0
-120 -4632 4674 0
-120 -4633 4675 0
-120 -4634 4676 0
-120 -4635 4677 0
-120 -4636 4678 0
-120 -4637 4679 0
-120 -4638 4680 0
-120 -4639 4681 0
-120 -4640 4682 0
-120 -4641 4683 0
-120 -4642 4684 0
-120 -4643 4685 0
-120 -4644 0
-121 4686 0
-4645 4686 0
-4646 4687 0
-4647 4688 0
-4648 4689 0
-4649 4690 0
-4650 4691 0
-4651 4692 0
-4652 4693 0
-4653 4694 0
-4654 4695 0
-4655 4696 0
-4656 4697 0
-4657 4698 0
-4658 4699 0
-4659 4700 0
-4660 4701 0
-4661 4702 0
-4662 4703 0
-4663 4704 0
-4664 4705 0
-4665 4706 0
-4666 4707 0
-4667 4708 0
-4668 4709 0
-4669 4710 0
-4670 4711 0
-4671 4712 0
-4672 4713 0
-4673 4714 0
-4674 4715 0
-4675 4716 0
-4676 4717 0
-4677 4718 0
-4678 4719 0
-4679 4720 0
-4680 4721 0
-4681 4722 0
-4682 4723 0
-4683 4724 0
-4684 4725 0
-4685 4726 0
-121 -4645 4687 0
-121 -4646 4688 0
-121 -4647 4689 0
-121 -4648 4690 0
-121 -4649 4691 0
-121 -4650 4692 0
-121 -4651 4693 0
-121 -4652 4694 0
-121 -4653 4695 0
-121 -4654 4696 0
-121 -4655 4697 0
-121 -4656 4698 0
-121 -4657 4699 0
-121 -4658 4700 0
-121 -4659 4701 0
-121 -4660 4702 0
-121 -4661 4703 0
-121 -4662 4704 0
-121 -4663 4705 0
-121 -4664 4706 0
-121 -4665 4707 0
-121 -4666 4708 0
-121 -4667 4709 0
-121 -4668 4710 0
-121 -4669 4711 0
-121 -4670 4712 0
-121 -4671 4713 0
-121 -4672 4714 0
-121 -4673 4715 0
-121 -4674 4716 0
-121 -4675 4717 0
-121 -4676 4718 0
-121 -4677 4719 0
-121 -4678 4720 0
-121 -4679 4721 0
-121 -4680 4722 0
-121 -4681 4723 0
-121 -4682 4724 0
-121 -4683 4725 0
-121 -4684 4726 0
-121 -4685 0
-122 4727 0
-4686 4727 0
-4687 4728 0
-4688 4729 0
-4689 4730 0
-4690 4731 0
-4691 4732 0
-4692 4733 0
-4693 4734 0
-4694 4735 0
-4695 4736 0
-4696 4737 0
-4697 4738 0
-4698 4739 0
-4699 4740 0
-4700 4741 0
-4701 4742 0
-4702 4743 0
-4703 4744 0
-4704 4745 0
-4705 4746 0
-4706 4747 0
-4707 4748 0
-4708 4749 0
-4709 4750 0
-4710 4751 0
-4711 4752 0
-4712 4753 0
-4713 4754 0
-4714 4755 0
-4715 4756 0
-4716 4757 0
-4717 4758 0
-4718 4759 0
-4719 4760 0
-4720 4761 0
-4721 4762 0
-4722 4763 0
-4723 4764 0
-4724 4765 0
-4725 4766 0
-4726 4767 0
-122 -4686 4728 0
-122 -4687 4729 0
-122 -4688 4730 0
-122 -4689 4731 0
-122 -4690 4732 0
-122 -4691 4733 0
-122 -4692 4734 0
-122 -4693 4735 0
-122 -4694 4736 0
-122 -4695 4737 0
-122 -4696 4738 0
-122 -4697 4739 0
-122 -4698 4740 0
-122 -4699 4741 0
-122 -4700 4742 0
-122 -4701 4743 0
-122 -4702 4744 0
-122 -4703 4745 0
-122 -4704 4746 0
-122 -4705 4747 0
-122 -4706 4748 0
-122 -4707 4749 0
-122 -4708 4750 0
-122 -4709 4751 0
-122 -4710 4752 0
-122 -4711 4753 0
-122 -4712 4754 0
-122 -4713 4755 0
-122 -4714 4756 0
-122 -4715 4757 0
-122 -4716 4758 0
-122 -4717 4759 0
-122 -4718 4760 0
-122 -4719 4761 0
-122 -4720 4762 0
-122 -4721 4763 0
-122 -4722 4764 0
-122 -4723 4765 0
-122 -4724 4766 0
-122 -4725 4767 0
-122 -4726 0
-123 4768 0
-4727 4768 0
-4728 4769 0
-4729 4770 0
-4730 4771 0
-4731 4772 0
-4732 4773 0
-4733 4774 0
-4734 4775 0
-4735 4776 0
-4736 4777 0
-4737 4778 0
-4738 4779 0
-4739 4780 0
-4740 4781 0
-4741 4782 0
-4742 4783 0
-4743 4784 0
-4744 4785 0
-4745 4786 0
-4746 4787 0
-4747 4788 0
-4748 4789 0
-4749 4790 0
-4750 4791 0
-4751 4792 0
-4752 4793 0
-4753 4794 0
-4754 4795 0
-4755 4796 0
-4756 4797 0
-4757 4798 0
-4758 4799 0
-4759 4800 0
-4760 4801 0
-4761 4802 0
-4762 4803 0
-4763 4804 0
-4764 4805 0
-4765 4806 0
-4766 4807 0
-4767 4808 0
-123 -4727 4769 0
-123 -4728 4770 0
-123 -4729 4771 0
-123 -4730 4772 0
-123 -4731 4773 0
-123 -4732 4774 0
-123 -4733 4775 0
-123 -4734 4776 0
-123 -4735 4777 0
-123 -4736 4778 0
-123 -4737 4779 0
-123 -4738 4780 0
-123 -4739 4781 0
-123 -4740 4782 0
-123 -4741 4783 0
-123 -4742 4784 0
-123 -4743 4785 0
-123 -4744 4786 0
-123 -4745 4787 0
-123 -4746 4788 0
-123 -4747 4789 0
-123 -4748 4790 0
-123 -4749 4791 0
-123 -4750 4792 0
-123 -4751 4793 0
-123 -4752 4794 0
-123 -4753 4795 0
-123 -4754 4796 0
-123 -4755 4797 0
-123 -4756 4798 0
-123 -4757 4799 0
-123 -4758 4800 0
-123 -4759 4801 0
-123 -4760 4802 0
-123 -4761 4803 0
-123 -4762 4804 0
-123 -4763 4805 0
-123 -4764 4806 0
-123 -4765 4807 0
-123 -4766 4808 0
-123 -4767 0
-124 4809 0
-4768 4809 0
-4769 4810 0
-4770 4811 0
-4771 4812 0
-4772 4813 0
-4773 4814 0
-4774 4815 0
-4775 4816 0
-4776 4817 0
-4777 4818 0
-4778 4819 0
-4779 4820 0
-4780 4821 0
-4781 4822 0
-4782 4823 0
-4783 4824 0
-4784 4825 0
-4785 4826 0
-4786 4827 0
-4787 4828 0
-4788 4829 0
-4789 4830 0
-4790 4831 0
-4791 4832 0
-4792 4833 0
-4793 4834 0
-4794 4835 0
-4795 4836 0
-4796 4837 0
-4797 4838 0
-4798 4839 0
-4799 4840 0
-4800 4841 0
-4801 4842 0
-4802 4843 0
-4803 4844 0
-4804 4845 0
-4805 4846 0
-4806 4847 0
-4807 4848 0
-4808 4849 0
-124 -4768 4810 0
-124 -4769 4811 0
-124 -4770 4812 0
-124 -4771 4813 0
-124 -4772 4814 0
-124 -4773 4815 0
-124 -4774 4816 0
-124 -4775 4817 0
-124 -4776 4818 0
-124 -4777 4819 0
-124 -4778 4820 0
-124 -4779 4821 0
-124 -4780 4822 0
-124 -4781 4823 0
-124 -4782 4824 0
-124 -4783 4825 0
-124 -4784 4826 0
-124 -4785 4827 0
-124 -4786 4828 0
-124 -4787 4829 0
-124 -4788 4830 0
-124 -4789 4831 0
-124 -4790 4832 0
-124 -4791 4833 0
-124 -4792 4834 0
-124 -4793 4835 0
-124 -4794 4836 0
-124 -4795 4837 0
-124 -4796 4838 0
-124 -4797 4839 0
-124 -4798 4840 0
-124 -4799 4841 0
-124 -4800 4842 0
-124 -4801 4843 0
-124 -4802 4844 0
-124 -4803 4845 0
-124 -4804 4846 0
-124 -4805 4847 0
-124 -4806 4848 0
-124 -4807 4849 0
-124 -4808 0
-125 4850 0
-4809 4850 0
-4810 4851 0
-4811 4852 0
-4812 4853 0
-4813 4854 0
-4814 4855 0
-4815 4856 0
-4816 4857 0
-4817 4858 0
-4818 4859 0
-4819 4860 0
-4820 4861 0
-4821 4862 0
-4822 4863 0
-4823 4864 0
-4824 4865 0
-4825 4866 0
-4826 4867 0
-4827 4868 0
-4828 4869 0
-4829 4870 0
-4830 4871 0
-4831 4872 0
-4832 4873 0
-4833 4874 0
-4834 4875 0
-4835 4876 0
-4836 4877 0
-4837 4878 0
-4838 4879 0
-4839 4880 0
-4840 4881 0
-4841 4882 0
-4842 4883 0
-4843 4884 0
-4844 4885 0
-4845 4886 0
-4846 4887 0
-4847 4888 0
-4848 4889 0
-4849 4890 0
-125 -4809 4851 0
-125 -4810 4852 0
-125 -4811 4853 0
-125 -4812 4854 0
-125 -4813 4855 0
-125 -4814 4856 0
-125 -4815 4857 0
-125 -4816 4858 0
-125 -4817 4859 0
-125 -4818 4860 0
-125 -4819 4861 0
-125 -4820 4862 0
-125 -4821 4863 0
-125 -4822 4864 0
-125 -4823 4865 0
-125 -4824 4866 0
-125 -4825 4867 0
-125 -4826 4868 0
-125 -4827 4869 0
-125 -4828 4870 0
-125 -4829 4871 0
-125 -4830 4872 0
-125 -4831 4873 0
-125 -4832 4874 0
-125 -4833 4875 0
-125 -4834 4876 0
-125 -4835 4877 0
-125 -4836 4878 0
-125 -4837 4879 0
-125 -4838 4880 0
-125 -4839 4881 0
-125 -4840 4882 0
-125 -4841 4883 0
-125 -4842 4884 0
-125 -4843 4885 0
-125 -4844 4886 0
-125 -4845 4887 0
-125 -4846 4888 0
-125 -4847 4889 0
-125 -4848 4890 0
-125 -4849 0
-126 4891 0
-4850 4891 0
-4851 4892 0
-4852 4893 0
-4853 4894 0
-4854 4895 0
-4855 4896 0
-4856 4897 0
-4857 4898 0
-4858 4899 0
-4859 4900 0
-4860 4901 0
-4861 4902 0
-4862 4903 0
-4863 4904 0
-4864 4905 0
-4865 4906 0
-4866 4907 0
-4867 4908 0
-4868 4909 0
-4869 4910 0
-4870 4911 0
-4871 4912 0
-4872 4913 0
-4873 4914 0
-4874 4915 0
-4875 4916 0
-4876 4917 0
-4877 4918 0
-4878 4919 0
-4879 4920 0
-4880 4921 0
-4881 4922 0
-4882 4923 0
-4883 4924 0
-4884 4925 0
-4885 4926 0
-4886 4927 0
-4887 4928 0
-4888 4929 0
-4889 4930 0
-4890 4931 0
-126 -4850 4892 0
-126 -4851 4893 0
-126 -4852 4894 0
-126 -4853 4895 0
-126 -4854 4896 0
-126 -4855 4897 0
-126 -4856 4898 0
-126 -4857 4899 0
-126 -4858 4900 0
-126 -4859 4901 0
-126 -4860 4902 0
-126 -4861 4903 0
-126 -4862 4904 0
-126 -4863 4905 0
-126 -4864 4906 0
-126 -4865 4907 0
-126 -4866 4908 0
-126 -4867 4909 0
-126 -4868 4910 0
-126 -4869 4911 0
-126 -4870 4912 0
-126 -4871 4913 0
-126 -4872 4914 0
-126 -4873 4915 0
-126 -4874 4916 0
-126 -4875 4917 0
-126 -4876 4918 0
-126 -4877 4919 0
-126 -4878 4920 0
-126 -4879 4921 0
-126 -4880 4922 0
-126 -4881 4923 0
-126 -4882 4924 0
-126 -4883 4925 0
-126 -4884 4926 0
-126 -4885 4927 0
-126 -4886 4928 0
-126 -4887 4929 0
-126 -4888 4930 0
-126 -4889 4931 0
-126 -4890 0
-127 4932 0
-4891 4932 0
-4892 4933 0
-4893 4934 0
-4894 4935 0
-4895 4936 0
-4896 4937 0
-4897 4938 0
-4898 4939 0
-4899 4940 0
-4900 4941 0
-4901 4942 0
-4902 4943 0
-4903 4944 0
-4904 4945 0
-4905 4946 0
-4906 4947 0
-4907 4948 0
-4908 4949 0
-4909 4950 0
-4910 4951 0
-4911 4952 0
-4912 4953 0
-4913 4954 0
-4914 4955 0
-4915 4956 0
-4916 4957 0
-4917 4958 0
-4918 4959 0
-4919 4960 0
-4920 4961 0
-4921 4962 0
-4922 4963 0
-4923 4964 0
-4924 4965 0
-4925 4966 0
-4926 4967 0
-4927 4968 0
-4928 4969 0
-4929 4970 0
-4930 4971 0
-4931 4972 0
-127 -4891 4933 0
-127 -4892 4934 0
-127 -4893 4935 0
-127 -4894 4936 0
-127 -4895 4937 0
-127 -4896 4938 0
-127 -4897 4939 0
-127 -4898 4940 0
-127 -4899 4941 0
-127 -4900 4942 0
-127 -4901 4943 0
-127 -4902 4944 0
-127 -4903 4945 0
-127 -4904 4946 0
-127 -4905 4947 0
-127 -4906 4948 0
-127 -4907 4949 0
-127 -4908 4950 0
-127 -4909 4951 0
-127 -4910 4952 0
-127 -4911 4953 0
-127 -4912 4954 0
-127 -4913 4955 0
-127 -4914 4956 0
-127 -4915 4957 0
-127 -4916 4958 0
-127 -4917 4959 0
-127 -4918 4960 0
-127 -4919 4961 0
-127 -4920 4962 0
-127 -4921 4963 0
-127 -4922 4964 0
-127 -4923 4965 0
-127 -4924 4966 0
-127 -4925 4967 0
-127 -4926 4968 0
-127 -4927 4969 0
-127 -4928 4970 0
-127 -4929 4971 0
-127 -4930 4972 0
-127 -4931 0
-128 4973 0
-4932 4973 0
-4933 4974 0
-4934 4975 0
-4935 4976 0
-4936 4977 0
-4937 4978 0
-4938 4979 0
-4939 4980 0
-4940 4981 0
-4941 4982 0
-4942 4983 0
-4943 4984 0
-4944 4985 0
-4945 4986 0
-4946 4987 0
-4947 4988 0
-4948 4989 0
-4949 4990 0
-4950 4991 0
-4951 4992 0
-4952 4993 0
-4953 4994 0
-4954 4995 0
-4955 4996 0
-4956 4997 0
-4957 4998 0
-4958 4999 0
-4959 5000 0
-4960 5001 0
-4961 5002 0
-4962 5003 0
-4963 5004 0
-4964 5005 0
-4965 5006 0
-4966 5007 0
-4967 5008 0
-4968 5009 0
-4969 5010 0
-4970 5011 0
-4971 5012 0
-4972 5013 0
-128 -4932 4974 0
-128 -4933 4975 0
-128 -4934 4976 0
-128 -4935 4977 0
-128 -4936 4978 0
-128 -4937 4979 0
-128 -4938 4980 0
-128 -4939 4981 0
-128 -4940 4982 0
-128 -4941 4983 0
-128 -4942 4984 0
-128 -4943 4985 0
-128 -4944 4986 0
-128 -4945 4987 0
-128 -4946 4988 0
-128 -4947 4989 0
-128 -4948 4990 0
-128 -4949 4991 0
-128 -4950 4992 0
-128 -4951 4993 0
-128 -4952 4994 0
-128 -4953 4995 0
-128 -4954 4996 0
-128 -4955 4997 0
-128 -4956 4998 0
-128 -4957 4999 0
-128 -4958 5000 0
-128 -4959 5001 0
-128 -4960 5002 0
-128 -4961 5003 0
-128 -4962 5004 0
-128 -4963 5005 0
-128 -4964 5006 0
-128 -4965 5007 0
-128 -4966 5008 0
-128 -4967 5009 0
-128 -4968 5010 0
-128 -4969 5011 0
-128 -4970 5012 0
-128 -4971 5013 0
-128 -4972 0
-129 5014 0
-4973 5014 0
-4974 5015 0
-4975 5016 0
-4976 5017 0
-4977 5018 0
-4978 5019 0
-4979 5020 0
-4980 5021 0
-4981 5022 0
-4982 5023 0
-4983 5024 0
-4984 5025 0
-4985 5026 0
-4986 5027 0
-4987 5028 0
-4988 5029 0
-4989 5030 0
-4990 5031 0
-4991 5032 0
-4992 5033 0
-4993 5034 0
-4994 5035 0
-4995 5036 0
-4996 5037 0
-4997 5038 0
-4998 5039 0
-4999 5040 0
-5000 5041 0
-5001 5042 0
-5002 5043 0
-5003 5044 0
-5004 5045 0
-5005 5046 0
-5006 5047 0
-5007 5048 0
-5008 5049 0
-5009 5050 0
-5010 5051 0
-5011 5052 0
-5012 5053 0
-5013 5054 0
-129 -4973 5015 0
-129 -4974 5016 0
-129 -4975 5017 0
-129 -4976 5018 0
-129 -4977 5019 0
-129 -4978 5020 0
-129 -4979 5021 0
-129 -4980 5022 0
-129 -4981 5023 0
-129 -4982 5024 0
-129 -4983 5025 0
-129 -4984 5026 0
-129 -4985 5027 0
-129 -4986 5028 0
-129 -4987 5029 0
-129 -4988 5030 0
-129 -4989 5031 0
-129 -4990 5032 0
-129 -4991 5033 0
-129 -4992 5034 0
-129 -4993 5035 0
-129 -4994 5036 0
-129 -4995 5037 0
-129 -4996 5038 0
-129 -4997 5039 0
-129 -4998 5040 0
-129 -4999 5041 0
-129 -5000 5042 0
-129 -5001 5043 0
-129 -5002 5044 0
-129 -5003 5045 0
-129 -5004 5046 0
-129 -5005 5047 0
-129 -5006 5048 0
-129 -5007 5049 0
-129 -5008 5050 0
-129 -5009 5051 0
-129 -5010 5052 0
-129 -5011 5053 0
-129 -5012 5054 0
-129 -5013 0
-130 5055 0
-5014 5055 0
-5015 5056 0
-5016 5057 0
-5017 5058 0
-5018 5059 0
-5019 5060 0
-5020 5061 0
-5021 5062 0
-5022 5063 0
-5023 5064 0
-5024 5065 0
-5025 5066 0
-5026 5067 0
-5027 5068 0
-5028 5069 0
-5029 5070 0
-5030 5071 0
-5031 5072 0
-5032 5073 0
-5033 5074 0
-5034 5075 0
-5035 5076 0
-5036 5077 0
-5037 5078 0
-5038 5079 0
-5039 5080 0
-5040 5081 0
-5041 5082 0
-5042 5083 0
-5043 5084 0
-5044 5085 0
-5045 5086 0
-5046 5087 0
-5047 5088 0
-5048 5089 0
-5049 5090 0
-5050 5091 0
-5051 5092 0
-5052 5093 0
-5053 5094 0
-5054 5095 0
-130 -5014 5056 0
-130 -5015 5057 0
-130 -5016 5058 0
-130 -5017 5059 0
-130 -5018 5060 0
-130 -5019 5061 0
-130 -5020 5062 0
-130 -5021 5063 0
-130 -5022 5064 0
-130 -5023 5065 0
-130 -5024 5066 0
-130 -5025 5067 0
-130 -5026 5068 0
-130 -5027 5069 0
-130 -5028 5070 0
-130 -5029 5071 0
-130 -5030 5072 0
-130 -5031 5073 0
-130 -5032 5074 0
-130 -5033 5075 0
-130 -5034 5076 0
-130 -5035 5077 0
-130 -5036 5078 0
-130 -5037 5079 0
-130 -5038 5080 0
-130 -5039 5081 0
-130 -5040 5082 0
-130 -5041 5083 0
-130 -5042 5084 0
-130 -5043 5085 0
-130 -5044 5086 0
-130 -5045 5087 0
-130 -5046 5088 0
-130 -5047 5089 0
-130 -5048 5090 0
-130 -5049 5091 0
-130 -5050 5092 0
-130 -5051 5093 0
-130 -5052 5094 0
-130 -5053 5095 0
-130 -5054 0
-131 5096 0
-5055 5096 0
-5056 5097 0
-5057 5098 0
-5058 5099 0
-5059 5100 0
-5060 5101 0
-5061 5102 0
-5062 5103 0
-5063 5104 0
-5064 5105 0
-5065 5106 0
-5066 5107 0
-5067 5108 0
-5068 5109 0
-5069 5110 0
-5070 5111 0
-5071 5112 0
-5072 5113 0
-5073 5114 0
-5074 5115 0
-5075 5116 0
-5076 5117 0
-5077 5118 0
-5078 5119 0
-5079 5120 0
-5080 5121 0
-5081 5122 0
-5082 5123 0
-5083 5124 0
-5084 5125 0
-5085 5126 0
-5086 5127 0
-5087 5128 0
-5088 5129 0
-5089 5130 0
-5090 5131 0
-5091 5132 0
-5092 5133 0
-5093 5134 0
-5094 5135 0
-5095 5136 0
-131 -5055 5097 0
-131 -5056 5098 0
-131 -5057 5099 0
-131 -5058 5100 0
-131 -5059 5101 0
-131 -5060 5102 0
-131 -5061 5103 0
-131 -5062 5104 0
-131 -5063 5105 0
-131 -5064 5106 0
-131 -5065 5107 0
-131 -5066 5108 0
-131 -5067 5109 0
-131 -5068 5110 0
-131 -5069 5111 0
-131 -5070 5112 0
-131 -5071 5113 0
-131 -5072 5114 0
-131 -5073 5115 0
-131 -5074 5116 0
-131 -5075 5117 0
-131 -5076 5118 0
-131 -5077 5119 0
-131 -5078 5120 0
-131 -5079 5121 0
-131 -5080 5122 0
-131 -5081 5123 0
-131 -5082 5124 0
-131 -5083 5125 0
-131 -5084 5126 0
-131 -5085 5127 0
-131 -5086 5128 0
-131 -5087 5129 0
-131 -5088 5130 0
-131 -5089 5131 0
-131 -5090 5132 0
-131 -5091 5133 0
-131 -5092 5134 0
-131 -5093 5135 0
-131 -5094 5136 0
-131 -5095 0
-132 5137 0
-5096 5137 0
-5097 5138 0
-5098 5139 0
-5099 5140 0
-5100 5141 0
-5101 5142 0
-5102 5143 0
-5103 5144 0
-5104 5145 0
-5105 5146 0
-5106 5147 0
-5107 5148 0
-5108 5149 0
-5109 5150 0
-5110 5151 0
-5111 5152 0
-5112 5153 0
-5113 5154 0
-5114 5155 0
-5115 5156 0
-5116 5157 0
-5117 5158 0
-5118 5159 0
-5119 5160 0
-5120 5161 0
-5121 5162 0
-5122 5163 0
-5123 5164 0
-5124 5165 0
-5125 5166 0
-5126 5167 0
-5127 5168 0
-5128 5169 0
-5129 5170 0
-5130 5171 0
-5131 5172 0
-5132 5173 0
-5133 5174 0
-5134 5175 0
-5135 5176 0
-5136 5177 0
-132 -5096 5138 0
-132 -5097 5139 0
-132 -5098 5140 0
-132 -5099 5141 0
-132 -5100 5142 0
-132 -5101 5143 0
-132 -5102 5144 0
-132 -5103 5145 0
-132 -5104 5146 0
-132 -5105 5147 0
-132 -5106 5148 0
-132 -5107 5149 0
-132 -5108 5150 0
-132 -5109 5151 0
-132 -5110 5152 0
-132 -5111 5153 0
-132 -5112 5154 0
-132 -5113 5155 0
-132 -5114 5156 0
-132 -5115 5157 0
-132 -5116 5158 0
-132 -5117 5159 0
-132 -5118 5160 0
-132 -5119 5161 0
-132 -5120 5162 0
-132 -5121 5163 0
-132 -5122 5164 0
-132 -5123 5165 0
-132 -5124 5166 0
-132 -5125 5167 0
-132 -5126 5168 0
-132 -5127 5169 0
-132 -5128 5170 0
-132 -5129 5171 0
-132 -5130 5172 0
-132 -5131 5173 0
-132 -5132 5174 0
-132 -5133 5175 0
-132 -5134 5176 0
-132 -5135 5177 0
-132 -5136 0
-133 5178 0
-5137 5178 0
-5138 5179 0
-5139 5180 0
-5140 5181 0
-5141 5182 0
-5142 5183 0
-5143 5184 0
-5144 5185 0
-5145 5186 0
-5146 5187 0
-5147 5188 0
-5148 5189 0
-5149 5190 0
-5150 5191 0
-5151 5192 0
-5152 5193 0
-5153 5194 0
-5154 5195 0
-5155 5196 0
-5156 5197 0
-5157 5198 0
-5158 5199 0
-5159 5200 0
-5160 5201 0
-5161 5202 0
-5162 5203 0
-5163 5204 0
-5164 5205 0
-5165 5206 0
-5166 5207 0
-5167 5208 0
-5168 5209 0
-5169 5210 0
-5170 5211 0
-5171 5212 0
-5172 5213 0
-5173 5214 0
-5174 5215 0
-5175 5216 0
-5176 5217 0
-5177 5218 0
-133 -5137 5179 0
-133 -5138 5180 0
-133 -5139 5181 0
-133 -5140 5182 0
-133 -5141 5183 0
-133 -5142 5184 0
-133 -5143 5185 0
-133 -5144 5186 0
-133 -5145 5187 0
-133 -5146 5188 0
-133 -5147 5189 0
-133 -5148 5190 0
-133 -5149 5191 0
-133 -5150 5192 0
-133 -5151 5193 0
-133 -5152 5194 0
-133 -5153 5195 0
-133 -5154 5196 0
-133 -5155 5197 0
-133 -5156 5198 0
-133 -5157 5199 0
-133 -5158 5200 0
-133 -5159 5201 0
-133 -5160 5202 0
-133 -5161 5203 0
-133 -5162 5204 0
-133 -5163 5205 0
-133 -5164 5206 0
-133 -5165 5207 0
-133 -5166 5208 0
-133 -5167 5209 0
-133 -5168 5210 0
-133 -5169 5211 0
-133 -5170 5212 0
-133 -5171 5213 0
-133 -5172 5214 0
-133 -5173 5215 0
-133 -5174 5216 0
-133 -5175 5217 0
-133 -5176 5218 0
-133 -5177 0
-134 5219 0
-5178 5219 0
-5179 5220 0
-5180 5221 0
-5181 5222 0
-5182 5223 0
-5183 5224 0
-5184 5225 0
-5185 5226 0
-5186 5227 0
-5187 5228 0
-5188 5229 0
-5189 5230 0
-5190 5231 0
-5191 5232 0
-5192 5233 0
-5193 5234 0
-5194 5235 0
-5195 5236 0
-5196 5237 0
-5197 5238 0
-5198 5239 0
-5199 5240 0
-5200 5241 0
-5201 5242 0
-5202 5243 0
-5203 5244 0
-5204 5245 0
-5205 5246 0
-5206 5247 0
-5207 5248 0
-5208 5249 0
-5209 5250 0
-5210 5251 0
-5211 5252 0
-5212 5253 0
-5213 5254 0
-5214 5255 0
-5215 5256 0
-5216 5257 0
-5217 5258 0
-5218 5259 0
-134 -5178 5220 0
-134 -5179 5221 0
-134 -5180 5222 0
-134 -5181 5223 0
-134 -5182 5224 0
-134 -5183 5225 0
-134 -5184 5226 0
-134 -5185 5227 0
-134 -5186 5228 0
-134 -5187 5229 0
-134 -5188 5230 0
-134 -5189 5231 0
-134 -5190 5232 0
-134 -5191 5233 0
-134 -5192 5234 0
-134 -5193 5235 0
-134 -5194 5236 0
-134 -5195 5237 0
-134 -5196 5238 0
-134 -5197 5239 0
-134 -5198 5240 0
-134 -5199 5241 0
-134 -5200 5242 0
-134 -5201 5243 0
-134 -5202 5244 0
-134 -5203 5245 0
-134 -5204 5246 0
-134 -5205 5247 0
-134 -5206 5248 0
-134 -5207 5249 0
-134 -5208 5250 0
-134 -5209 5251 0
-134 -5210 5252 0
-134 -5211 5253 0
-134 -5212 5254 0
-134 -5213 5255 0
-134 -5214 5256 0
-134 -5215 5257 0
-134 -5216 5258 0
-134 -5217 5259 0
-134 -5218 0
-135 5260 0
-5219 5260 0
-5220 5261 0
-5221 5262 0
-5222 5263 0
-5223 5264 0
-5224 5265 0
-5225 5266 0
-5226 5267 0
-5227 5268 0
-5228 5269 0
-5229 5270 0
-5230 5271 0
-5231 5272 0
-5232 5273 0
-5233 5274 0
-5234 5275 0
-5235 5276 0
-5236 5277 0
-5237 5278 0
-5238 5279 0
-5239 5280 0
-5240 5281 0
-5241 5282 0
-5242 5283 0
-5243 5284 0
-5244 5285 0
-5245 5286 0
-5246 5287 0
-5247 5288 0
-5248 5289 0
-5249 5290 0
-5250 5291 0
-5251 5292 0
-5252 5293 0
-5253 5294 0
-5254 5295 0
-5255 5296 0
-5256 5297 0
-5257 5298 0
-5258 5299 0
-5259 5300 0
-135 -5219 5261 0
-135 -5220 5262 0
-135 -5221 5263 0
-135 -5222 5264 0
-135 -5223 5265 0
-135 -5224 5266 0
-135 -5225 5267 0
-135 -5226 5268 0
-135 -5227 5269 0
-135 -5228 5270 0
-135 -5229 5271 0
-135 -5230 5272 0
-135 -5231 5273 0
-135 -5232 5274 0
-135 -5233 5275 0
-135 -5234 5276 0
-135 -5235 5277 0
-135 -5236 5278 0
-135 -5237 5279 0
-135 -5238 5280 0
-135 -5239 5281 0
-135 -5240 5282 0
-135 -5241 5283 0
-135 -5242 5284 0
-135 -5243 5285 0
-135 -5244 5286 0
-135 -5245 5287 0
-135 -5246 5288 0
-135 -5247 5289 0
-135 -5248 5290 0
-135 -5249 5291 0
-135 -5250 5292 0
-135 -5251 5293 0
-135 -5252 5294 0
-135 -5253 5295 0
-135 -5254 5296 0
-135 -5255 5297 0
-135 -5256 5298 0
-135 -5257 5299 0
-135 -5258 5300 0
-135 -5259 0
-136 5301 0
-5260 5301 0
-5261 5302 0
-5262 5303 0
-5263 5304 0
-5264 5305 0
-5265 5306 0
-5266 5307 0
-5267 5308 0
-5268 5309 0
-5269 5310 0
-5270 5311 0
-5271 5312 0
-5272 5313 0
-5273 5314 0
-5274 5315 0
-5275 5316 0
-5276 5317 0
-5277 5318 0
-5278 5319 0
-5279 5320 0
-5280 5321 0
-5281 5322 0
-5282 5323 0
-5283 5324 0
-5284 5325 0
-5285 5326 0
-5286 5327 0
-5287 5328 0
-5288 5329 0
-5289 5330 0
-5290 5331 0
-5291 5332 0
-5292 5333 0
-5293 5334 0
-5294 5335 0
-5295 5336 0
-5296 5337 0
-5297 5338 0
-5298 5339 0
-5299 5340 0
-5300 5341 0
-136 -5260 5302 0
-136 -5261 5303 0
-136 -5262 5304 0
-136 -5263 5305 0
-136 -5264 5306 0
-136 -5265 5307 0
-136 -5266 5308 0
-136 -5267 5309 0
-136 -5268 5310 0
-136 -5269 5311 0
-136 -5270 5312 0
-136 -5271 5313 0
-136 -5272 5314 0
-136 -5273 5315 0
-136 -5274 5316 0
-136 -5275 5317 0
-136 -5276 5318 0
-136 -5277 5319 0
-136 -5278 5320 0
-136 -5279 5321 0
-136 -5280 5322 0
-136 -5281 5323 0
-136 -5282 5324 0
-136 -5283 5325 0
-136 -5284 5326 0
-136 -5285 5327 0
-136 -5286 5328 0
-136 -5287 5329 0
-136 -5288 5330 0
-136 -5289 5331 0
-136 -5290 5332 0
-136 -5291 5333 0
-136 -5292 5334 0
-136 -5293 5335 0
-136 -5294 5336 0
-136 -5295 5337 0
-136 -5296 5338 0
-136 -5297 5339 0
-136 -5298 5340 0
-136 -5299 5341 0
-136 -5300 0
-137 5342 0
-5301 5342 0
-5302 5343 0
-5303 5344 0
-5304 5345 0
-5305 5346 0
-5306 5347 0
-5307 5348 0
-5308 5349 0
-5309 5350 0
-5310 5351 0
-5311 5352 0
-5312 5353 0
-5313 5354 0
-5314 5355 0
-5315 5356 0
-5316 5357 0
-5317 5358 0
-5318 5359 0
-5319 5360 0
-5320 5361 0
-5321 5362 0
-5322 5363 0
-5323 5364 0
-5324 5365 0
-5325 5366 0
-5326 5367 0
-5327 5368 0
-5328 5369 0
-5329 5370 0
-5330 5371 0
-5331 5372 0
-5332 5373 0
-5333 5374 0
-5334 5375 0
-5335 5376 0
-5336 5377 0
-5337 5378 0
-5338 5379 0
-5339 5380 0
-5340 5381 0
-5341 5382 0
-137 -5301 5343 0
-137 -5302 5344 0
-137 -5303 5345 0
-137 -5304 5346 0
-137 -5305 5347 0
-137 -5306 5348 0
-137 -5307 5349 0
-137 -5308 5350 0
-137 -5309 5351 0
-137 -5310 5352 0
-137 -5311 5353 0
-137 -5312 5354 0
-137 -5313 5355 0
-137 -5314 5356 0
-137 -5315 5357 0
-137 -5316 5358 0
-137 -5317 5359 0
-137 -5318 5360 0
-137 -5319 5361 0
-137 -5320 5362 0
-137 -5321 5363 0
-137 -5322 5364 0
-137 -5323 5365 0
-137 -5324 5366 0
-137 -5325 5367 0
-137 -5326 5368 0
-137 -5327 5369 0
-137 -5328 5370 0
-137 -5329 5371 0
-137 -5330 5372 0
-137 -5331 5373 0
-137 -5332 5374 0
-137 -5333 5375 0
-137 -5334 5376 0
-137 -5335 5377 0
-137 -5336 5378 0
-137 -5337 5379 0
-137 -5338 5380 0
-137 -5339 5381 0
-137 -5340 5382 0
-137 -5341 0
-138 5383 0
-5342 5383 0
-5343 5384 0
-5344 5385 0
-5345 5386 0
-5346 5387 0
-5347 5388 0
-5348 5389 0
-5349 5390 0
-5350 5391 0
-5351 5392 0
-5352 5393 0
-5353 5394 0
-5354 5395 0
-5355 5396 0
-5356 5397 0
-5357 5398 0
-5358 5399 0
-5359 5400 0
-5360 5401 0
-5361 5402 0
-5362 5403 0
-5363 5404 0
-5364 5405 0
-5365 5406 0
-5366 5407 0
-5367 5408 0
-5368 5409 0
-5369 5410 0
-5370 5411 0
-5371 5412 0
-5372 5413 0
-5373 5414 0
-5374 5415 0
-5375 5416 0
-5376 5417 0
-5377 5418 0
-5378 5419 0
-5379 5420 0
-5380 5421 0
-5381 5422 0
-5382 5423 0
-138 -5342 5384 0
-138 -5343 5385 0
-138 -5344 5386 0
-138 -5345 5387 0
-138 -5346 5388 0
-138 -5347 5389 0
-138 -5348 5390 0
-138 -5349 5391 0
-138 -5350 5392 0
-138 -5351 5393 0
-138 -5352 5394 0
-138 -5353 5395 0
-138 -5354 5396 0
-138 -5355 5397 0
-138 -5356 5398 0
-138 -5357 5399 0
-138 -5358 5400 0
-138 -5359 5401 0
-138 -5360 5402 0
-138 -5361 5403 0
-138 -5362 5404 0
-138 -5363 5405 0
-138 -5364 5406 0
-138 -5365 5407 0
-138 -5366 5408 0
-138 -5367 5409 0
-138 -5368 5410 0
-138 -5369 5411 0
-138 -5370 5412 0
-138 -5371 5413 0
-138 -5372 5414 0
-138 -5373 5415 0
-138 -5374 5416 0
-138 -5375 5417 0
-138 -5376 5418 0
-138 -5377 5419 0
-138 -5378 5420 0
-138 -5379 5421 0
-138 -5380 5422 0
-138 -5381 5423 0
-138 -5382 0
-139 5424 0
-5383 5424 0
-5384 5425 0
-5385 5426 0
-5386 5427 0
-5387 5428 0
-5388 5429 0
-5389 5430 0
-5390 5431 0
-5391 5432 0
-5392 5433 0
-5393 5434 0
-5394 5435 0
-5395 5436 0
-5396 5437 0
-5397 5438 0
-5398 5439 0
-5399 5440 0
-5400 5441 0
-5401 5442 0
-5402 5443 0
-5403 5444 0
-5404 5445 0
-5405 5446 0
-5406 5447 0
-5407 5448 0
-5408 5449 0
-5409 5450 0
-5410 5451 0
-5411 5452 0
-5412 5453 0
-5413 5454 0
-5414 5455 0
-5415 5456 0
-5416 5457 0
-5417 5458 0
-5418 5459 0
-5419 5460 0
-5420 5461 0
-5421 5462 0
-5422 5463 0
-5423 5464 0
-139 -5383 5425 0
-139 -5384 5426 0
-139 -5385 5427 0
-139 -5386 5428 0
-139 -5387 5429 0
-139 -5388 5430 0
-139 -5389 5431 0
-139 -5390 5432 0
-139 -5391 5433 0
-139 -5392 5434 0
-139 -5393 5435 0
-139 -5394 5436 0
-139 -5395 5437 0
-139 -5396 5438 0
-139 -5397 5439 0
-139 -5398 5440 0
-139 -5399 5441 0
-139 -5400 5442 0
-139 -5401 5443 0
-139 -5402 5444 0
-139 -5403 5445 0
-139 -5404 5446 0
-139 -5405 5447 0
-139 -5406 5448 0
-139 -5407 5449 0
-139 -5408 5450 0
-139 -5409 5451 0
-139 -5410 5452 0
-139 -5411 5453 0
-139 -5412 5454 0
-139 -5413 5455 0
-139 -5414 5456 0
-139 -5415 5457 0
-139 -5416 5458 0
-139 -5417 5459 0
-139 -5418 5460 0
-139 -5419 5461 0
-139 -5420 5462 0
-139 -5421 5463 0
-139 -5422 5464 0
-139 -5423 0
-140 5465 0
-5424 5465 0
-5425 5466 0
-5426 5467 0
-5427 5468 0
-5428 5469 0
-5429 5470 0
-5430 5471 0
-5431 5472 0
-5432 5473 0
-5433 5474 0
-5434 5475 0
-5435 5476 0
-5436 5477 0
-5437 5478 0
-5438 5479 0
-5439 5480 0
-5440 5481 0
-5441 5482 0
-5442 5483 0
-5443 5484 0
-5444 5485 0
-5445 5486 0
-5446 5487 0
-5447 5488 0
-5448 5489 0
-5449 5490 0
-5450 5491 0
-5451 5492 0
-5452 5493 0
-5453 5494 0
-5454 5495 0
-5455 5496 0
-5456 5497 0
-5457 5498 0
-5458 5499 0
-5459 5500 0
-5460 5501 0
-5461 5502 0
-5462 5503 0
-5463 5504 0
-5464 5505 0
-140 -5424 5466 0
-140 -5425 5467 0
-140 -5426 5468 0
-140 -5427 5469 0
-140 -5428 5470 0
-140 -5429 5471 0
-140 -5430 5472 0
-140 -5431 5473 0
-140 -5432 5474 0
-140 -5433 5475 0
-140 -5434 5476 0
-140 -5435 5477 0
-140 -5436 5478 0
-140 -5437 5479 0
-140 -5438 5480 0
-140 -5439 5481 0
-140 -5440 5482 0
-140 -5441 5483 0
-140 -5442 5484 0
-140 -5443 5485 0
-140 -5444 5486 0
-140 -5445 5487 0
-140 -5446 5488 0
-140 -5447 5489 0
-140 -5448 5490 0
-140 -5449 5491 0
-140 -5450 5492 0
-140 -5451 5493 0
-140 -5452 5494 0
-140 -5453 5495 0
-140 -5454 5496 0
-140 -5455 5497 0
-140 -5456 5498 0
-140 -5457 5499 0
-140 -5458 5500 0
-140 -5459 5501 0
-140 -5460 5502 0
-140 -5461 5503 0
-140 -5462 5504 0
-140 -5463 5505 0
-140 -5464 0
-141 5506 0
-5465 5506 0
-5466 5507 0
-5467 5508 0
-5468 5509 0
-5469 5510 0
-5470 5511 0
-5471 5512 0
-5472 5513 0
-5473 5514 0
-5474 5515 0
-5475 5516 0
-5476 5517 0
-5477 5518 0
-5478 5519 0
-5479 5520 0
-5480 5521 0
-5481 5522 0
-5482 5523 0
-5483 5524 0
-5484 5525 0
-5485 5526 0
-5486 5527 0
-5487 5528 0
-5488 5529 0
-5489 5530 0
-5490 5531 0
-5491 5532 0
-5492 5533 0
-5493 5534 0
-5494 5535 0
-5495 5536 0
-5496 5537 0
-5497 5538 0
-5498 5539 0
-5499 5540 0
-5500 5541 0
-5501 5542 0
-5502 5543 0
-5503 5544 0
-5504 5545 0
-5505 5546 0
-141 -5465 5507 0
-141 -5466 5508 0
-141 -5467 5509 0
-141 -5468 5510 0
-141 -5469 5511 0
-141 -5470 5512 0
-141 -5471 5513 0
-141 -5472 5514 0
-141 -5473 5515 0
-141 -5474 5516 0
-141 -5475 5517 0
-141 -5476 5518 0
-141 -5477 5519 0
-141 -5478 5520 0
-141 -5479 5521 0
-141 -5480 5522 0
-141 -5481 5523 0
-141 -5482 5524 0
-141 -5483 5525 0
-141 -5484 5526 0
-141 -5485 5527 0
-141 -5486 5528 0
-141 -5487 5529 0
-141 -5488 5530 0
-141 -5489 5531 0
-141 -5490 5532 0
-141 -5491 5533 0
-141 -5492 5534 0
-141 -5493 5535 0
-141 -5494 5536 0
-141 -5495 5537 0
-141 -5496 5538 0
-141 -5497 5539 0
-141 -5498 5540 0
-141 -5499 5541 0
-141 -5500 5542 0
-141 -5501 5543 0
-141 -5502 5544 0
-141 -5503 5545 0
-141 -5504 5546 0
-141 -5505 0
-142 5547 0
-5506 5547 0
-5507 5548 0
-5508 5549 0
-5509 5550 0
-5510 5551 0
-5511 5552 0
-5512 5553 0
-5513 5554 0
-5514 5555 0
-5515 5556 0
-5516 5557 0
-5517 5558 0
-5518 5559 0
-5519 5560 0
-5520 5561 0
-5521 5562 0
-5522 5563 0
-5523 5564 0
-5524 5565 0
-5525 5566 0
-5526 5567 0
-5527 5568 0
-5528 5569 0
-5529 5570 0
-5530 5571 0
-5531 5572 0
-5532 5573 0
-5533 5574 0
-5534 5575 0
-5535 5576 0
-5536 5577 0
-5537 5578 0
-5538 5579 0
-5539 5580 0
-5540 5581 0
-5541 5582 0
-5542 5583 0
-5543 5584 0
-5544 5585 0
-5545 5586 0
-5546 5587 0
-142 -5506 5548 0
-142 -5507 5549 0
-142 -5508 5550 0
-142 -5509 5551 0
-142 -5510 5552 0
-142 -5511 5553 0
-142 -5512 5554 0
-142 -5513 5555 0
-142 -5514 5556 0
-142 -5515 5557 0
-142 -5516 5558 0
-142 -5517 5559 0
-142 -5518 5560 0
-142 -5519 5561 0
-142 -5520 5562 0
-142 -5521 5563 0
-142 -5522 5564 0
-142 -5523 5565 0
-142 -5524 5566 0
-142 -5525 5567 0
-142 -5526 5568 0
-142 -5527 5569 0
-142 -5528 5570 0
-142 -5529 5571 0
-142 -5530 5572 0
-142 -5531 5573 0
-142 -5532 5574 0
-142 -5533 5575 0
-142 -5534 5576 0
-142 -5535 5577 0
-142 -5536 5578 0
-142 -5537 5579 0
-142 -5538 5580 0
-142 -5539 5581 0
-142 -5540 5582 0
-142 -5541 5583 0
-142 -5542 5584 0
-142 -5543 5585 0
-142 -5544 5586 0
-142 -5545 5587 0
-142 -5546 0
-143 5588 0
-5547 5588 0
-5548 5589 0
-5549 5590 0
-5550 5591 0
-5551 5592 0
-5552 5593 0
-5553 5594 0
-5554 5595 0
-5555 5596 0
-5556 5597 0
-5557 5598 0
-5558 5599 0
-5559 5600 0
-5560 5601 0
-5561 5602 0
-5562 5603 0
-5563 5604 0
-5564 5605 0
-5565 5606 0
-5566 5607 0
-5567 5608 0
-5568 5609 0
-5569 5610 0
-5570 5611 0
-5571 5612 0
-5572 5613 0
-5573 5614 0
-5574 5615 0
-5575 5616 0
-5576 5617 0
-5577 5618 0
-5578 5619 0
-5579 5620 0
-5580 5621 0
-5581 5622 0
-5582 5623 0
-5583 5624 0
-5584 5625 0
-5585 5626 0
-5586 5627 0
-5587 5628 0
-143 -5547 5589 0
-143 -5548 5590 0
-143 -5549 5591 0
-143 -5550 5592 0
-143 -5551 5593 0
-143 -5552 5594 0
-143 -5553 5595 0
-143 -5554 5596 0
-143 -5555 5597 0
-143 -5556 5598 0
-143 -5557 5599 0
-143 -5558 5600 0
-143 -5559 5601 0
-143 -5560 5602 0
-143 -5561 5603 0
-143 -5562 5604 0
-143 -5563 5605 0
-143 -5564 5606 0
-143 -5565 5607 0
-143 -5566 5608 0
-143 -5567 5609 0
-143 -5568 5610 0
-143 -5569 5611 0
-143 -5570 5612 0
-143 -5571 5613 0
-143 -5572 5614 0
-143 -5573 5615 0
-143 -5574 5616 0
-143 -5575 5617 0
-143 -5576 5618 0
-143 -5577 5619 0
-143 -5578 5620 0
-143 -5579 5621 0
-143 -5580 5622 0
-143 -5581 5623 0
-143 -5582 5624 0
-143 -5583 5625 0
-143 -5584 5626 0
-143 -5585 5627 0
-143 -5586 5628 0
-143 -5587 0
-144 5629 0
-5588 5629 0
-5589 5630 0
-5590 5631 0
-5591 5632 0
-5592 5633 0
-5593 5634 0
-5594 5635 0
-5595 5636 0
-5596 5637 0
-5597 5638 0
-5598 5639 0
-5599 5640 0
-5600 5641 0
-5601 5642 0
-5602 5643 0
-5603 5644 0
-5604 5645 0
-5605 5646 0
-5606 5647 0
-5607 5648 0
-5608 5649 0
-5609 5650 0
-5610 5651 0
-5611 5652 0
-5612 5653 0
-5613 5654 0
-5614 5655 0
-5615 5656 0
-5616 5657 0
-5617 5658 0
-5618 5659 0
-5619 5660 0
-5620 5661 0
-5621 5662 0
-5622 5663 0
-5623 5664 0
-5624 5665 0
-5625 5666 0
-5626 5667 0
-5627 5668 0
-5628 5669 0
-144 -5588 5630 0
-144 -5589 5631 0
-144 -5590 5632 0
-144 -5591 5633 0
-144 -5592 5634 0
-144 -5593 5635 0
-144 -5594 5636 0
-144 -5595 5637 0
-144 -5596 5638 0
-144 -5597 5639 0
-144 -5598 5640 0
-144 -5599 5641 0
-144 -5600 5642 0
-144 -5601 5643 0
-144 -5602 5644 0
-144 -5603 5645 0
-144 -5604 5646 0
-144 -5605 5647 0
-144 -5606 5648 0
-144 -5607 5649 0
-144 -5608 5650 0
-144 -5609 5651 0
-144 -5610 5652 0
-144 -5611 5653 0
-144 -5612 5654 0
-144 -5613 5655 0
-144 -5614 5656 0
-144 -5615 5657 0
-144 -5616 5658 0
-144 -5617 5659 0
-144 -5618 5660 0
-144 -5619 5661 0
-144 -5620 5662 0
-144 -5621 5663 0
-144 -5622 5664 0
-144 -5623 5665 0
-144 -5624 5666 0
-144 -5625 5667 0
-144 -5626 5668 0
-144 -5627 5669 0
-144 -5628 0
-145 5670 0
-5629 5670 0
-5630 5671 0
-5631 5672 0
-5632 5673 0
-5633 5674 0
-5634 5675 0
-5635 5676 0
-5636 5677 0
-5637 5678 0
-5638 5679 0
-5639 5680 0
-5640 5681 0
-5641 5682 0
-5642 5683 0
-5643 5684 0
-5644 5685 0
-5645 5686 0
-5646 5687 0
-5647 5688 0
-5648 5689 0
-5649 5690 0
-5650 5691 0
-5651 5692 0
-5652 5693 0
-5653 5694 0
-5654 5695 0
-5655 5696 0
-5656 5697 0
-5657 5698 0
-5658 5699 0
-5659 5700 0
-5660 5701 0
-5661 5702 0
-5662 5703 0
-5663 5704 0
-5664 5705 0
-5665 5706 0
-5666 5707 0
-5667 5708 0
-5668 5709 0
-5669 5710 0
-145 -5629 5671 0
-145 -5630 5672 0
-145 -5631 5673 0
-145 -5632 5674 0
-145 -5633 5675 0
-145 -5634 5676 0
-145 -5635 5677 0
-145 -5636 5678 0
-145 -5637 5679 0
-145 -5638 5680 0
-145 -5639 5681 0
-145 -5640 5682 0
-145 -5641 5683 0
-145 -5642 5684 0
-145 -5643 5685 0
-145 -5644 5686 0
-145 -5645 5687 0
-145 -5646 5688 0
-145 -5647 5689 0
-145 -5648 5690 0
-145 -5649 5691 0
-145 -5650 5692 0
-145 -5651 5693 0
-145 -5652 5694 0
-145 -5653 5695 0
-145 -5654 5696 0
-145 -5655 5697 0
-145 -5656 5698 0
-145 -5657 5699 0
-145 -5658 5700 0
-145 -5659 5701 0
-145 -5660 5702 0
-145 -5661 5703 0
-145 -5662 5704 0
-145 -5663 5705 0
-145 -5664 5706 0
-145 -5665 5707 0
-145 -5666 5708 0
-145 -5667 5709 0
-145 -5668 5710 0
-145 -5669 0
-146 5711 0
-5670 5711 0
-5671 5712 0
-5672 5713 0
-5673 5714 0
-5674 5715 0
-5675 5716 0
-5676 5717 0
-5677 5718 0
-5678 5719 0
-5679 5720 0
-5680 5721 0
-5681 5722 0
-5682 5723 0
-5683 5724 0
-5684 5725 0
-5685 5726 0
-5686 5727 0
-5687 5728 0
-5688 5729 0
-5689 5730 0
-5690 5731 0
-5691 5732 0
-5692 5733 0
-5693 5734 0
-5694 5735 0
-5695 5736 0
-5696 5737 0
-5697 5738 0
-5698 5739 0
-5699 5740 0
-5700 5741 0
-5701 5742 0
-5702 5743 0
-5703 5744 0
-5704 5745 0
-5705 5746 0
-5706 5747 0
-5707 5748 0
-5708 5749 0
-5709 5750 0
-5710 5751 0
-146 -5670 5712 0
-146 -5671 5713 0
-146 -5672 5714 0
-146 -5673 5715 0
-146 -5674 5716 0
-146 -5675 5717 0
-146 -5676 5718 0
-146 -5677 5719 0
-146 -5678 5720 0
-146 -5679 5721 0
-146 -5680 5722 0
-146 -5681 5723 0
-146 -5682 5724 0
-146 -5683 5725 0
-146 -5684 5726 0
-146 -5685 5727 0
-146 -5686 5728 0
-146 -5687 5729 0
-146 -5688 5730 0
-146 -5689 5731 0
-146 -5690 5732 0
-146 -5691 5733 0
-146 -5692 5734 0
-146 -5693 5735 0
-146 -5694 5736 0
-146 -5695 5737 0
-146 -5696 5738 0
-146 -5697 5739 0
-146 -5698 5740 0
-146 -5699 5741 0
-146 -5700 5742 0
-146 -5701 5743 0
-146 -5702 5744 0
-146 -5703 5745 0
-146 -5704 5746 0
-146 -5705 5747 0
-146 -5706 5748 0
-146 -5707 5749 0
-146 -5708 5750 0
-146 -5709 5751 0
-146 -5710 0
-147 5752 0
-5711 5752 0
-5712 5753 0
-5713 5754 0
-5714 5755 0
-5715 5756 0
-5716 5757 0
-5717 5758 0
-5718 5759 0
-5719 5760 0
-5720 5761 0
-5721 5762 0
-5722 5763 0
-5723 5764 0
-5724 5765 0
-5725 5766 0
-5726 5767 0
-5727 5768 0
-5728 5769 0
-5729 5770 0
-5730 5771 0
-5731 5772 0
-5732 5773 0
-5733 5774 0
-5734 5775 0
-5735 5776 0
-5736 5777 0
-5737 5778 0
-5738 5779 0
-5739 5780 0
-5740 5781 0
-5741 5782 0
-5742 5783 0
-5743 5784 0
-5744 5785 0
-5745 5786 0
-5746 5787 0
-5747 5788 0
-5748 5789 0
-5749 5790 0
-5750 5791 0
-5751 5792 0
-147 -5711 5753 0
-147 -5712 5754 0
-147 -5713 5755 0
-147 -5714 5756 0
-147 -5715 5757 0
-147 -5716 5758 0
-147 -5717 5759 0
-147 -5718 5760 0
-147 -5719 5761 0
-147 -5720 5762 0
-147 -5721 5763 0
-147 -5722 5764 0
-147 -5723 5765 0
-147 -5724 5766 0
-147 -5725 5767 0
-147 -5726 5768 0
-147 -5727 5769 0
-147 -5728 5770 0
-147 -5729 5771 0
-147 -5730 5772 0
-147 -5731 5773 0
-147 -5732 5774 0
-147 -5733 5775 0
-147 -5734 5776 0
-147 -5735 5777 0
-147 -5736 5778 0
-147 -5737 5779 0
-147 -5738 5780 0
-147 -5739 5781 0
-147 -5740 5782 0
-147 -5741 5783 0
-147 -5742 5784 0
-147 -5743 5785 0
-147 -5744 5786 0
-147 -5745 5787 0
-147 -5746 5788 0
-147 -5747 5789 0
-147 -5748 5790 0
-147 -5749 5791 0
-147 -5750 5792 0
-147 -5751 0
-148 5793 0
-5752 5793 0
-5753 5794 0
-5754 5795 0
-5755 5796 0
-5756 5797 0
-5757 5798 0
-5758 5799 0
-5759 5800 0
-5760 5801 0
-5761 5802 0
-5762 5803 0
-5763 5804 0
-5764 5805 0
-5765 5806 0
-5766 5807 0
-5767 5808 0
-5768 5809 0
-5769 5810 0
-5770 5811 0
-5771 5812 0
-5772 5813 0
-5773 5814 0
-5774 5815 0
-5775 5816 0
-5776 5817 0
-5777 5818 0
-5778 5819 0
-5779 5820 0
-5780 5821 0
-5781 5822 0
-5782 5823 0
-5783 5824 0
-5784 5825 0
-5785 5826 0
-5786 5827 0
-5787 5828 0
-5788 5829 0
-5789 5830 0
-5790 5831 0
-5791 5832 0
-5792 5833 0
-148 -5752 5794 0
-148 -5753 5795 0
-148 -5754 5796 0
-148 -5755 5797 0
-148 -5756 5798 0
-148 -5757 5799 0
-148 -5758 5800 0
-148 -5759 5801 0
-148 -5760 5802 0
-148 -5761 5803 0
-148 -5762 5804 0
-148 -5763 5805 0
-148 -5764 5806 0
-148 -5765 5807 0
-148 -5766 5808 0
-148 -5767 5809 0
-148 -5768 5810 0
-148 -5769 5811 0
-148 -5770 5812 0
-148 -5771 5813 0
-148 -5772 5814 0
-148 -5773 5815 0
-148 -5774 5816 0
-148 -5775 5817 0
-148 -5776 5818 0
-148 -5777 5819 0
-148 -5778 5820 0
-148 -5779 5821 0
-148 -5780 5822 0
-148 -5781 5823 0
-148 -5782 5824 0
-148 -5783 5825 0
-148 -5784 5826 0
-148 -5785 5827 0
-148 -5786 5828 0
-148 -5787 5829 0
-148 -5788 5830 0
-148 -5789 5831 0
-148 -5790 5832 0
-148 -5791 5833 0
-148 -5792 0
-149 5834 0
-5793 5834 0
-5794 5835 0
-5795 5836 0
-5796 5837 0
-5797 5838 0
-5798 5839 0
-5799 5840 0
-5800 5841 0
-5801 5842 0
-5802 5843 0
-5803 5844 0
-5804 5845 0
-5805 5846 0
-5806 5847 0
-5807 5848 0
-5808 5849 0
-5809 5850 0
-5810 5851 0
-5811 5852 0
-5812 5853 0
-5813 5854 0
-5814 5855 0
-5815 5856 0
-5816 5857 0
-5817 5858 0
-5818 5859 0
-5819 5860 0
-5820 5861 0
-5821 5862 0
-5822 5863 0
-5823 5864 0
-5824 5865 0
-5825 5866 0
-5826 5867 0
-5827 5868 0
-5828 5869 0
-5829 5870 0
-5830 5871 0
-5831 5872 0
-5832 5873 0
-5833 5874 0
-149 -5793 5835 0
-149 -5794 5836 0
-149 -5795 5837 0
-149 -5796 5838 0
-149 -5797 5839 0
-149 -5798 5840 0
-149 -5799 5841 0
-149 -5800 5842 0
-149 -5801 5843 0
-149 -5802 5844 0
-149 -5803 5845 0
-149 -5804 5846 0
-149 -5805 5847 0
-149 -5806 5848 0
-149 -5807 5849 0
-149 -5808 5850 0
-149 -5809 5851 0
-149 -5810 5852 0
-149 -5811 5853 0
-149 -5812 5854 0
-149 -5813 5855 0
-149 -5814 5856 0
-149 -5815 5857 0
-149 -5816 5858 0
-149 -5817 5859 0
-149 -5818 5860 0
-149 -5819 5861 0
-149 -5820 5862 0
-149 -5821 5863 0
-149 -5822 5864 0
-149 -5823 5865 0
-149 -5824 5866 0
-149 -5825 5867 0
-149 -5826 5868 0
-149 -5827 5869 0
-149 -5828 5870 0
-149 -5829 5871 0
-149 -5830 5872 0
-149 -5831 5873 0
-149 -5832 5874 0
-149 -5833 0
-150 5875 0
-5834 5875 0
-5835 5876 0
-5836 5877 0
-5837 5878 0
-5838 5879 0
-5839 5880 0
-5840 5881 0
-5841 5882 0
-5842 5883 0
-5843 5884 0
-5844 5885 0
-5845 5886 0
-5846 5887 0
-5847 5888 0
-5848 5889 0
-5849 5890 0
-5850 5891 0
-5851 5892 0
-5852 5893 0
-5853 5894 0
-5854 5895 0
-5855 5896 0
-5856 5897 0
-5857 5898 0
-5858 5899 0
-5859 5900 0
-5860 5901 0
-5861 5902 0
-5862 5903 0
-5863 5904 0
-5864 5905 0
-5865 5906 0
-5866 5907 0
-5867 5908 0
-5868 5909 0
-5869 5910 0
-5870 5911 0
-5871 5912 0
-5872 5913 0
-5873 5914 0
-5874 5915 0
-150 -5834 5876 0
-150 -5835 5877 0
-150 -5836 5878 0
-150 -5837 5879 0
-150 -5838 5880 0
-150 -5839 5881 0
-150 -5840 5882 0
-150 -5841 5883 0
-150 -5842 5884 0
-150 -5843 5885 0
-150 -5844 5886 0
-150 -5845 5887 0
-150 -5846 5888 0
-150 -5847 5889 0
-150 -5848 5890 0
-150 -5849 5891 0
-150 -5850 5892 0
-150 -5851 5893 0
-150 -5852 5894 0
-150 -5853 5895 0
-150 -5854 5896 0
-150 -5855 5897 0
-150 -5856 5898 0
-150 -5857 5899 0
-150 -5858 5900 0
-150 -5859 5901 0
-150 -5860 5902 0
-150 -5861 5903 0
-150 -5862 5904 0
-150 -5863 5905 0
-150 -5864 5906 0
-150 -5865 5907 0
-150 -5866 5908 0
-150 -5867 5909 0
-150 -5868 5910 0
-150 -5869 5911 0
-150 -5870 5912 0
-150 -5871 5913 0
-150 -5872 5914 0
-150 -5873 5915 0
-150 -5874 0
-151 5916 0
-5875 5916 0
-5876 5917 0
-5877 5918 0
-5878 5919 0
-5879 5920 0
-5880 5921 0
-5881 5922 0
-5882 5923 0
-5883 5924 0
-5884 5925 0
-5885 5926 0
-5886 5927 0
-5887 5928 0
-5888 5929 0
-5889 5930 0
-5890 5931 0
-5891 5932 0
-5892 5933 0
-5893 5934 0
-5894 5935 0
-5895 5936 0
-5896 5937 0
-5897 5938 0
-5898 5939 0
-5899 5940 0
-5900 5941 0
-5901 5942 0
-5902 5943 0
-5903 5944 0
-5904 5945 0
-5905 5946 0
-5906 5947 0
-5907 5948 0
-5908 5949 0
-5909 5950 0
-5910 5951 0
-5911 5952 0
-5912 5953 0
-5913 5954 0
-5914 5955 0
-5915 5956 0
-151 -5875 5917 0
-151 -5876 5918 0
-151 -5877 5919 0
-151 -5878 5920 0
-151 -5879 5921 0
-151 -5880 5922 0
-151 -5881 5923 0
-151 -5882 5924 0
-151 -5883 5925 0
-151 -5884 5926 0
-151 -5885 5927 0
-151 -5886 5928 0
-151 -5887 5929 0
-151 -5888 5930 0
-151 -5889 5931 0
-151 -5890 5932 0
-151 -5891 5933 0
-151 -5892 5934 0
-151 -5893 5935 0
-151 -5894 5936 0
-151 -5895 5937 0
-151 -5896 5938 0
-151 -5897 5939 0
-151 -5898 5940 0
-151 -5899 5941 0
-151 -5900 5942 0
-151 -5901 5943 0
-151 -5902 5944 0
-151 -5903 5945 0
-151 -5904 5946 0
-151 -5905 5947 0
-151 -5906 5948 0
-151 -5907 5949 0
-151 -5908 5950 0
-151 -5909 5951 0
-151 -5910 5952 0
-151 -5911 5953 0
-151 -5912 5954 0
-151 -5913 5955 0
-151 -5914 5956 0
-151 -5915 0
-152 5957 0
-5916 5957 0
-5917 5958 0
-5918 5959 0
-5919 5960 0
-5920 5961 0
-5921 5962 0
-5922 5963 0
-5923 5964 0
-5924 5965 0
-5925 5966 0
-5926 5967 0
-5927 5968 0
-5928 5969 0
-5929 5970 0
-5930 5971 0
-5931 5972 0
-5932 5973 0
-5933 5974 0
-5934 5975 0
-5935 5976 0
-5936 5977 0
-5937 5978 0
-5938 5979 0
-5939 5980 0
-5940 5981 0
-5941 5982 0
-5942 5983 0
-5943 5984 0
-5944 5985 0
-5945 5986 0
-5946 5987 0
-5947 5988 0
-5948 5989 0
-5949 5990 0
-5950 5991 0
-5951 5992 0
-5952 5993 0
-5953 5994 0
-5954 5995 0
-5955 5996 0
-5956 5997 0
-152 -5916 5958 0
-152 -5917 5959 0
-152 -5918 5960 0
-152 -5919 5961 0
-152 -5920 5962 0
-152 -5921 5963 0
-152 -5922 5964 0
-152 -5923 5965 0
-152 -5924 5966 0
-152 -5925 5967 0
-152 -5926 5968 0
-152 -5927 5969 0
-152 -5928 5970 0
-152 -5929 5971 0
-152 -5930 5972 0
-152 -5931 5973 0
-152 -5932 5974 0
-152 -5933 5975 0
-152 -5934 5976 0
-152 -5935 5977 0
-152 -5936 5978 0
-152 -5937 5979 0
-152 -5938 5980 0
-152 -5939 5981 0
-152 -5940 5982 0
-152 -5941 5983 0
-152 -5942 5984 0
-152 -5943 5985 0
-152 -5944 5986 0
-152 -5945 5987 0
-152 -5946 5988 0
-152 -5947 5989 0
-152 -5948 5990 0
-152 -5949 5991 0
-152 -5950 5992 0
-152 -5951 5993 0
-152 -5952 5994 0
-152 -5953 5995 0
-152 -5954 5996 0
-152 -5955 5997 0
-152 -5956 0
-153 5998 0
-5957 5998 0
-5958 5999 0
-5959 6000 0
-5960 6001 0
-5961 6002 0
-5962 6003 0
-5963 6004 0
-5964 6005 0
-5965 6006 0
-5966 6007 0
-5967 6008 0
-5968 6009 0
-5969 6010 0
-5970 6011 0
-5971 6012 0
-5972 6013 0
-5973 6014 0
-5974 6015 0
-5975 6016 0
-5976 6017 0
-5977 6018 0
-5978 6019 0
-5979 6020 0
-5980 6021 0
-5981 6022 0
-5982 6023 0
-5983 6024 0
-5984 6025 0
-5985 6026 0
-5986 6027 0
-5987 6028 0
-5988 6029 0
-5989 6030 0
-5990 6031 0
-5991 6032 0
-5992 6033 0
-5993 6034 0
-5994 6035 0
-5995 6036 0
-5996 6037 0
-5997 6038 0
-153 -5957 5999 0
-153 -5958 6000 0
-153 -5959 6001 0
-153 -5960 6002 0
-153 -5961 6003 0
-153 -5962 6004 0
-153 -5963 6005 0
-153 -5964 6006 0
-153 -5965 6007 0
-153 -5966 6008 0
-153 -5967 6009 0
-153 -5968 6010 0
-153 -5969 6011 0
-153 -5970 6012 0
-153 -5971 6013 0
-153 -5972 6014 0
-153 -5973 6015 0
-153 -5974 6016 0
-153 -5975 6017 0
-153 -5976 6018 0
-153 -5977 6019 0
-153 -5978 6020 0
-153 -5979 6021 0
-153 -5980 6022 0
-153 -5981 6023 0
-153 -5982 6024 0
-153 -5983 6025 0
-153 -5984 6026 0
-153 -5985 6027 0
-153 -5986 6028 0
-153 -5987 6029 0
-153 -5988 6030 0
-153 -5989 6031 0
-153 -5990 6032 0
-153 -5991 6033 0
-153 -5992 6034 0
-153 -5993 6035 0
-153 -5994 6036 0
-153 -5995 6037 0
-153 -5996 6038 0
-153 -5997 0
-154 6039 0
-5998 6039 0
-5999 6040 0
-6000 6041 0
-6001 6042 0
-6002 6043 0
-6003 6044 0
-6004 6045 0
-6005 6046 0
-6006 6047 0
-6007 6048 0
-6008 6049 0
-6009 6050 0
-6010 6051 0
-6011 6052 0
-6012 6053 0
-6013 6054 0
-6014 6055 0
-6015 6056 0
-6016 6057 0
-6017 6058 0
-6018 6059 0
-6019 6060 0
-6020 6061 0
-6021 6062 0
-6022 6063 0
-6023 6064 0
-6024 6065 0
-6025 6066 0
-6026 6067 0
-6027 6068 0
-6028 6069 0
-6029 6070 0
-6030 6071 0
-6031 6072 0
-6032 6073 0
-6033 6074 0
-6034 6075 0
-6035 6076 0
-6036 6077 0
-6037 6078 0
-6038 6079 0
-154 -5998 6040 0
-154 -5999 6041 0
-154 -6000 6042 0
-154 -6001 6043 0
-154 -6002 6044 0
-154 -6003 6045 0
-154 -6004 6046 0
-154 -6005 6047 0
-154 -6006 6048 0
-154 -6007 6049 0
-154 -6008 6050 0
-154 -6009 6051 0
-154 -6010 6052 0
-154 -6011 6053 0
-154 -6012 6054 0
-154 -6013 6055 0
-154 -6014 6056 0
-154 -6015 6057 0
-154 -6016 6058 0
-154 -6017 6059 0
-154 -6018 6060 0
-154 -6019 6061 0
-154 -6020 6062 0
-154 -6021 6063 0
-154 -6022 6064 0
-154 -6023 6065 0
-154 -6024 6066 0
-154 -6025 6067 0
-154 -6026 6068 0
-154 -6027 6069 0
-154 -6028 6070 0
-154 -6029 6071 0
-154 -6030 6072 0
-154 -6031 6073 0
-154 -6032 6074 0
-154 -6033 6075 0
-154 -6034 6076 0
-154 -6035 6077 0
-154 -6036 6078 0
-154 -6037 6079 0
-154 -6038 0
-155 6080 0
-6039 6080 0
-6040 6081 0
-6041 6082 0
-6042 6083 0
-6043 6084 0
-6044 6085 0
-6045 6086 0
-6046 6087 0
-6047 6088 0
-6048 6089 0
-6049 6090 0
-6050 6091 0
-6051 6092 0
-6052 6093 0
-6053 6094 0
-6054 6095 0
-6055 6096 0
-6056 6097 0
-6057 6098 0
-6058 6099 0
-6059 6100 0
-6060 6101 0
-6061 6102 0
-6062 6103 0
-6063 6104 0
-6064 6105 0
-6065 6106 0
-6066 6107 0
-6067 6108 0
-6068 6109 0
-6069 6110 0
-6070 6111 0
-6071 6112 0
-6072 6113 0
-6073 6114 0
-6074 6115 0
-6075 6116 0
-6076 6117 0
-6077 6118 0
-6078 6119 0
-6079 6120 0
-155 -6039 6081 0
-155 -6040 6082 0
-155 -6041 6083 0
-155 -6042 6084 0
-155 -6043 6085 0
-155 -6044 6086 0
-155 -6045 6087 0
-155 -6046 6088 0
-155 -6047 6089 0
-155 -6048 6090 0
-155 -6049 6091 0
-155 -6050 6092 0
-155 -6051 6093 0
-155 -6052 6094 0
-155 -6053 6095 0
-155 -6054 6096 0
-155 -6055 6097 0
-155 -6056 6098 0
-155 -6057 6099 0
-155 -6058 6100 0
-155 -6059 6101 0
-155 -6060 6102 0
-155 -6061 6103 0
-155 -6062 6104 0
-155 -6063 6105 0
-155 -6064 6106 0
-155 -6065 6107 0
-155 -6066 6108 0
-155 -6067 6109 0
-155 -6068 6110 0
-155 -6069 6111 0
-155 -6070 6112 0
-155 -6071 6113 0
-155 -6072 6114 0
-155 -6073 6115 0
-155 -6074 6116 0
-155 -6075 6117 0
-155 -6076 6118 0
-155 -6077 6119 0
-155 -6078 6120 0
-155 -6079 0
-156 6121 0
-6080 6121 0
-6081 6122 0
-6082 6123 0
-6083 6124 0
-6084 6125 0
-6085 6126 0
-6086 6127 0
-6087 6128 0
-6088 6129 0
-6089 6130 0
-6090 6131 0
-6091 6132 0
-6092 6133 0
-6093 6134 0
-6094 6135 0
-6095 6136 0
-6096 6137 0
-6097 6138 0
-6098 6139 0
-6099 6140 0
-6100 6141 0
-6101 6142 0
-6102 6143 0
-6103 6144 0
-6104 6145 0
-6105 6146 0
-6106 6147 0
-6107 6148 0
-6108 6149 0
-6109 6150 0
-6110 6151 0
-6111 6152 0
-6112 6153 0
-6113 6154 0
-6114 6155 0
-6115 6156 0
-6116 6157 0
-6117 6158 0
-6118 6159 0
-6119 6160 0
-6120 6161 0
-156 -6080 6122 0
-156 -6081 6123 0
-156 -6082 6124 0
-156 -6083 6125 0
-156 -6084 6126 0
-156 -6085 6127 0
-156 -6086 6128 0
-156 -6087 6129 0
-156 -6088 6130 0
-156 -6089 6131 0
-156 -6090 6132 0
-156 -6091 6133 0
-156 -6092 6134 0
-156 -6093 6135 0
-156 -6094 6136 0
-156 -6095 6137 0
-156 -6096 6138 0
-156 -6097 6139 0
-156 -6098 6140 0
-156 -6099 6141 0
-156 -6100 6142 0
-156 -6101 6143 0
-156 -6102 6144 0
-156 -6103 6145 0
-156 -6104 6146 0
-156 -6105 6147 0
-156 -6106 6148 0
-156 -6107 6149 0
-156 -6108 6150 0
-156 -6109 6151 0
-156 -6110 6152 0
-156 -6111 6153 0
-156 -6112 6154 0
-156 -6113 6155 0
-156 -6114 6156 0
-156 -6115 6157 0
-156 -6116 6158 0
-156 -6117 6159 0
-156 -6118 6160 0
-156 -6119 6161 0
-156 -6120 0
-157 6162 0
-6121 6162 0
-6122 6163 0
-6123 6164 0
-6124 6165 0
-6125 6166 0
-6126 6167 0
-6127 6168 0
-6128 6169 0
-6129 6170 0
-6130 6171 0
-6131 6172 0
-6132 6173 0
-6133 6174 0
-6134 6175 0
-6135 6176 0
-6136 6177 0
-6137 6178 0
-6138 6179 0
-6139 6180 0
-6140 6181 0
-6141 6182 0
-6142 6183 0
-6143 6184 0
-6144 6185 0
-6145 6186 0
-6146 6187 0
-6147 6188 0
-6148 6189 0
-6149 6190 0
-6150 6191 0
-6151 6192 0
-6152 6193 0
-6153 6194 0
-6154 6195 0
-6155 6196 0
-6156 6197 0
-6157 6198 0
-6158 6199 0
-6159 6200 0
-6160 6201 0
-6161 6202 0
-157 -6121 6163 0
-157 -6122 6164 0
-157 -6123 6165 0
-157 -6124 6166 0
-157 -6125 6167 0
-157 -6126 6168 0
-157 -6127 6169 0
-157 -6128 6170 0
-157 -6129 6171 0
-157 -6130 6172 0
-157 -6131 6173 0
-157 -6132 6174 0
-157 -6133 6175 0
-157 -6134 6176 0
-157 -6135 6177 0
-157 -6136 6178 0
-157 -6137 6179 0
-157 -6138 6180 0
-157 -6139 6181 0
-157 -6140 6182 0
-157 -6141 6183 0
-157 -6142 6184 0
-157 -6143 6185 0
-157 -6144 6186 0
-157 -6145 6187 0
-157 -6146 6188 0
-157 -6147 6189 0
-157 -6148 6190 0
-157 -6149 6191 0
-157 -6150 6192 0
-157 -6151 6193 0
-157 -6152 6194 0
-157 -6153 6195 0
-157 -6154 6196 0
-157 -6155 6197 0
-157 -6156 6198 0
-157 -6157 6199 0
-157 -6158 6200 0
-157 -6159 6201 0
-157 -6160 6202 0
-157 -6161 0
-158 6203 0
-6162 6203 0
-6163 6204 0
-6164 6205 0
-6165 6206 0
-6166 6207 0
-6167 6208 0
-6168 6209 0
-6169 6210 0
-6170 6211 0
-6171 6212 0
-6172 6213 0
-6173 6214 0
-6174 6215 0
-6175 6216 0
-6176 6217 0
-6177 6218 0
-6178 6219 0
-6179 6220 0
-6180 6221 0
-6181 6222 0
-6182 6223 0
-6183 6224 0
-6184 6225 0
-6185 6226 0
-6186 6227 0
-6187 6228 0
-6188 6229 0
-6189 6230 0
-6190 6231 0
-6191 6232 0
-6192 6233 0
-6193 6234 0
-6194 6235 0
-6195 6236 0
-6196 6237 0
-6197 6238 0
-6198 6239 0
-6199 6240 0
-6200 6241 0
-6201 6242 0
-6202 6243 0
-158 -6162 6204 0
-158 -6163 6205 0
-158 -6164 6206 0
-158 -6165 6207 0
-158 -6166 6208 0
-158 -6167 6209 0
-158 -6168 6210 0
-158 -6169 6211 0
-158 -6170 6212 0
-158 -6171 6213 0
-158 -6172 6214 0
-158 -6173 6215 0
-158 -6174 6216 0
-158 -6175 6217 0
-158 -6176 6218 0
-158 -6177 6219 0
-158 -6178 6220 0
-158 -6179 6221 0
-158 -6180 6222 0
-158 -6181 6223 0
-158 -6182 6224 0
-158 -6183 6225 0
-158 -6184 6226 0
-158 -6185 6227 0
-158 -6186 6228 0
-158 -6187 6229 0
-158 -6188 6230 0
-158 -6189 6231 0
-158 -6190 6232 0
-158 -6191 6233 0
-158 -6192 6234 0
-158 -6193 6235 0
-158 -6194 6236 0
-158 -6195 6237 0
-158 -6196 6238 0
-158 -6197 6239 0
-158 -6198 6240 0
-158 -6199 6241 0
-158 -6200 6242 0
-158 -6201 6243 0
-158 -6202 0
-159 6244 0
-6203 6244 0
-6204 6245 0
-6205 6246 0
-6206 6247 0
-6207 6248 0
-6208 6249 0
-6209 6250 0
-6210 6251 0
-6211 6252 0
-6212 6253 0
-6213 6254 0
-6214 6255 0
-6215 6256 0
-6216 6257 0
-6217 6258 0
-6218 6259 0
-6219 6260 0
-6220 6261 0
-6221 6262 0
-6222 6263 0
-6223 6264 0
-6224 6265 0
-6225 6266 0
-6226 6267 0
-6227 6268 0
-6228 6269 0
-6229 6270 0
-6230 6271 0
-6231 6272 0
-6232 6273 0
-6233 6274 0
-6234 6275 0
-6235 6276 0
-6236 6277 0
-6237 6278 0
-6238 6279 0
-6239 6280 0
-6240 6281 0
-6241 6282 0
-6242 6283 0
-6243 6284 0
-159 -6203 6245 0
-159 -6204 6246 0
-159 -6205 6247 0
-159 -6206 6248 0
-159 -6207 6249 0
-159 -6208 6250 0
-159 -6209 6251 0
-159 -6210 6252 0
-159 -6211 6253 0
-159 -6212 6254 0
-159 -6213 6255 0
-159 -6214 6256 0
-159 -6215 6257 0
-159 -6216 6258 0
-159 -6217 6259 0
-159 -6218 6260 0
-159 -6219 6261 0
-159 -6220 6262 0
-159 -6221 6263 0
-159 -6222 6264 0
-159 -6223 6265 0
-159 -6224 6266 0
-159 -6225 6267 0
-159 -6226 6268 0
-159 -6227 6269 0
-159 -6228 6270 0
-159 -6229 6271 0
-159 -6230 6272 0
-159 -6231 6273 0
-159 -6232 6274 0
-159 -6233 6275 0
-159 -6234 6276 0
-159 -6235 6277 0
-159 -6236 6278 0
-159 -6237 6279 0
-159 -6238 6280 0
-159 -6239 6281 0
-159 -6240 6282 0
-159 -6241 6283 0
-159 -6242 6284 0
-159 -6243 0
-160 6285 0
-6244 6285 0
-6245 6286 0
-6246 6287 0
-6247 6288 0
-6248 6289 0
-6249 6290 0
-6250 6291 0
-6251 6292 0
-6252 6293 0
-6253 6294 0
-6254 6295 0
-6255 6296 0
-6256 6297 0
-6257 6298 0
-6258 6299 0
-6259 6300 0
-6260 6301 0
-6261 6302 0
-6262 6303 0
-6263 6304 0
-6264 6305 0
-6265 6306 0
-6266 6307 0
-6267 6308 0
-6268 6309 0
-6269 6310 0
-6270 6311 0
-6271 6312 0
-6272 6313 0
-6273 6314 0
-6274 6315 0
-6275 6316 0
-6276 6317 0
-6277 6318 0
-6278 6319 0
-6279 6320 0
-6280 6321 0
-6281 6322 0
-6282 6323 0
-6283 6324 0
-6284 6325 0
-160 -6244 6286 0
-160 -6245 6287 0
-160 -6246 6288 0
-160 -6247 6289 0
-160 -6248 6290 0
-160 -6249 6291 0
-160 -6250 6292 0
-160 -6251 6293 0
-160 -6252 6294 0
-160 -6253 6295 0
-160 -6254 6296 0
-160 -6255 6297 0
-160 -6256 6298 0
-160 -6257 6299 0
-160 -6258 6300 0
-160 -6259 6301 0
-160 -6260 6302 0
-160 -6261 6303 0
-160 -6262 6304 0
-160 -6263 6305 0
-160 -6264 6306 0
-160 -6265 6307 0
-160 -6266 6308 0
-160 -6267 6309 0
-160 -6268 6310 0
-160 -6269 6311 0
-160 -6270 6312 0
-160 -6271 6313 0
-160 -6272 6314 0
-160 -6273 6315 0
-160 -6274 6316 0
-160 -6275 6317 0
-160 -6276 6318 0
-160 -6277 6319 0
-160 -6278 6320 0
-160 -6279 6321 0
-160 -6280 6322 0
-160 -6281 6323 0
-160 -6282 6324 0
-160 -6283 6325 0
-160 -6284 0
-161 6326 0
-6285 6326 0
-6286 6327 0
-6287 6328 0
-6288 6329 0
-6289 6330 0
-6290 6331 0
-6291 6332 0
-6292 6333 0
-6293 6334 0
-6294 6335 0
-6295 6336 0
-6296 6337 0
-6297 6338 0
-6298 6339 0
-6299 6340 0
-6300 6341 0
-6301 6342 0
-6302 6343 0
-6303 6344 0
-6304 6345 0
-6305 6346 0
-6306 6347 0
-6307 6348 0
-6308 6349 0
-6309 6350 0
-6310 6351 0
-6311 6352 0
-6312 6353 0
-6313 6354 0
-6314 6355 0
-6315 6356 0
-6316 6357 0
-6317 6358 0
-6318 6359 0
-6319 6360 0
-6320 6361 0
-6321 6362 0
-6322 6363 0
-6323 6364 0
-6324 6365 0
-6325 6366 0
-161 -6285 6327 0
-161 -6286 6328 0
-161 -6287 6329 0
-161 -6288 6330 0
-161 -6289 6331 0
-161 -6290 6332 0
-161 -6291 6333 0
-161 -6292 6334 0
-161 -6293 6335 0
-161 -6294 6336 0
-161 -6295 6337 0
-161 -6296 6338 0
-161 -6297 6339 0
-161 -6298 6340 0
-161 -6299 6341 0
-161 -6300 6342 0
-161 -6301 6343 0
-161 -6302 6344 0
-161 -6303 6345 0
-161 -6304 6346 0
-161 -6305 6347 0
-161 -6306 6348 0
-161 -6307 6349 0
-161 -6308 6350 0
-161 -6309 6351 0
-161 -6310 6352 0
-161 -6311 6353 0
-161 -6312 6354 0
-161 -6313 6355 0
-161 -6314 6356 0
-161 -6315 6357 0
-161 -6316 6358 0
-161 -6317 6359 0
-161 -6318 6360 0
-161 -6319 6361 0
-161 -6320 6362 0
-161 -6321 6363 0
-161 -6322 6364 0
-161 -6323 6365 0
-161 -6324 6366 0
-161 -6325 0
-162 6367 0
-6326 6367 0
-6327 6368 0
-6328 6369 0
-6329 6370 0
-6330 6371 0
-6331 6372 0
-6332 6373 0
-6333 6374 0
-6334 6375 0
-6335 6376 0
-6336 6377 0
-6337 6378 0
-6338 6379 0
-6339 6380 0
-6340 6381 0
-6341 6382 0
-6342 6383 0
-6343 6384 0
-6344 6385 0
-6345 6386 0
-6346 6387 0
-6347 6388 0
-6348 6389 0
-6349 6390 0
-6350 6391 0
-6351 6392 0
-6352 6393 0
-6353 6394 0
-6354 6395 0
-6355 6396 0
-6356 6397 0
-6357 6398 0
-6358 6399 0
-6359 6400 0
-6360 6401 0
-6361 6402 0
-6362 6403 0
-6363 6404 0
-6364 6405 0
-6365 6406 0
-6366 6407 0
-162 -6326 6368 0
-162 -6327 6369 0
-162 -6328 6370 0
-162 -6329 6371 0
-162 -6330 6372 0
-162 -6331 6373 0
-162 -6332 6374 0
-162 -6333 6375 0
-162 -6334 6376 0
-162 -6335 6377 0
-162 -6336 6378 0
-162 -6337 6379 0
-162 -6338 6380 0
-162 -6339 6381 0
-162 -6340 6382 0
-162 -6341 6383 0
-162 -6342 6384 0
-162 -6343 6385 0
-162 -6344 6386 0
-162 -6345 6387 0
-162 -6346 6388 0
-162 -6347 6389 0
-162 -6348 6390 0
-162 -6349 6391 0
-162 -6350 6392 0
-162 -6351 6393 0
-162 -6352 6394 0
-162 -6353 6395 0
-162 -6354 6396 0
-162 -6355 6397 0
-162 -6356 6398 0
-162 -6357 6399 0
-162 -6358 6400 0
-162 -6359 6401 0
-162 -6360 6402 0
-162 -6361 6403 0
-162 -6362 6404 0
-162 -6363 6405 0
-162 -6364 6406 0
-162 -6365 6407 0
-162 -6366 0
-163 6408 0
-6367 6408 0
-6368 6409 0
-6369 6410 0
-6370 6411 0
-6371 6412 0
-6372 6413 0
-6373 6414 0
-6374 6415 0
-6375 6416 0
-6376 6417 0
-6377 6418 0
-6378 6419 0
-6379 6420 0
-6380 6421 0
-6381 6422 0
-6382 6423 0
-6383 6424 0
-6384 6425 0
-6385 6426 0
-6386 6427 0
-6387 6428 0
-6388 6429 0
-6389 6430 0
-6390 6431 0
-6391 6432 0
-6392 6433 0
-6393 6434 0
-6394 6435 0
-6395 6436 0
-6396 6437 0
-6397 6438 0
-6398 6439 0
-6399 6440 0
-6400 6441 0
-6401 6442 0
-6402 6443 0
-6403 6444 0
-6404 6445 0
-6405 6446 0
-6406 6447 0
-6407 6448 0
-163 -6367 6409 0
-163 -6368 6410 0
-163 -6369 6411 0
-163 -6370 6412 0
-163 -6371 6413 0
-163 -6372 6414 0
-163 -6373 6415 0
-163 -6374 6416 0
-163 -6375 6417 0
-163 -6376 6418 0
-163 -6377 6419 0
-163 -6378 6420 0
-163 -6379 6421 0
-163 -6380 6422 0
-163 -6381 6423 0
-163 -6382 6424 0
-163 -6383 6425 0
-163 -6384 6426 0
-163 -6385 6427 0
-163 -6386 6428 0
-163 -6387 6429 0
-163 -6388 6430 0
-163 -6389 6431 0
-163 -6390 6432 0
-163 -6391 6433 0
-163 -6392 6434 0
-163 -6393 6435 0
-163 -6394 6436 0
-163 -6395 6437 0
-163 -6396 6438 0
-163 -6397 6439 0
-163 -6398 6440 0
-163 -6399 6441 0
-163 -6400 6442 0
-163 -6401 6443 0
-163 -6402 6444 0
-163 -6403 6445 0
-163 -6404 6446 0
-163 -6405 6447 0
-163 -6406 6448 0
-163 -6407 0
-164 6449 0
-6408 6449 0
-6409 6450 0
-6410 6451 0
-6411 6452 0
-6412 6453 0
-6413 6454 0
-6414 6455 0
-6415 6456 0
-6416 6457 0
-6417 6458 0
-6418 6459 0
-6419 6460 0
-6420 6461 0
-6421 6462 0
-6422 6463 0
-6423 6464 0
-6424 6465 0
-6425 6466 0
-6426 6467 0
-6427 6468 0
-6428 6469 0
-6429 6470 0
-6430 6471 0
-6431 6472 0
-6432 6473 0
-6433 6474 0
-6434 6475 0
-6435 6476 0
-6436 6477 0
-6437 6478 0
-6438 6479 0
-6439 6480 0
-6440 6481 0
-6441 6482 0
-6442 6483 0
-6443 6484 0
-6444 6485 0
-6445 6486 0
-6446 6487 0
-6447 6488 0
-6448 6489 0
-164 -6408 6450 0
-164 -6409 6451 0
-164 -6410 6452 0
-164 -6411 6453 0
-164 -6412 6454 0
-164 -6413 6455 0
-164 -6414 6456 0
-164 -6415 6457 0
-164 -6416 6458 0
-164 -6417 6459 0
-164 -6418 6460 0
-164 -6419 6461 0
-164 -6420 6462 0
-164 -6421 6463 0
-164 -6422 6464 0
-164 -6423 6465 0
-164 -6424 6466 0
-164 -6425 6467 0
-164 -6426 6468 0
-164 -6427 6469 0
-164 -6428 6470 0
-164 -6429 6471 0
-164 -6430 6472 0
-164 -6431 6473 0
-164 -6432 6474 0
-164 -6433 6475 0
-164 -6434 6476 0
-164 -6435 6477 0
-164 -6436 6478 0
-164 -6437 6479 0
-164 -6438 6480 0
-164 -6439 6481 0
-164 -6440 6482 0
-164 -6441 6483 0
-164 -6442 6484 0
-164 -6443 6485 0
-164 -6444 6486 0
-164 -6445 6487 0
-164 -6446 6488 0
-164 -6447 6489 0
-164 -6448 0
-165 6490 0
-6449 6490 0
-6450 6491 0
-6451 6492 0
-6452 6493 0
-6453 6494 0
-6454 6495 0
-6455 6496 0
-6456 6497 0
-6457 6498 0
-6458 6499 0
-6459 6500 0
-6460 6501 0
-6461 6502 0
-6462 6503 0
-6463 6504 0
-6464 6505 0
-6465 6506 0
-6466 6507 0
-6467 6508 0
-6468 6509 0
-6469 6510 0
-6470 6511 0
-6471 6512 0
-6472 6513 0
-6473 6514 0
-6474 6515 0
-6475 6516 0
-6476 6517 0
-6477 6518 0
-6478 6519 0
-6479 6520 0
-6480 6521 0
-6481 6522 0
-6482 6523 0
-6483 6524 0
-6484 6525 0
-6485 6526 0
-6486 6527 0
-6487 6528 0
-6488 6529 0
-6489 6530 0
-165 -6449 6491 0
-165 -6450 6492 0
-165 -6451 6493 0
-165 -6452 6494 0
-165 -6453 6495 0
-165 -6454 6496 0
-165 -6455 6497 0
-165 -6456 6498 0
-165 -6457 6499 0
-165 -6458 6500 0
-165 -6459 6501 0
-165 -6460 6502 0
-165 -6461 6503 0
-165 -6462 6504 0
-165 -6463 6505 0
-165 -6464 6506 0
-165 -6465 6507 0
-165 -6466 6508 0
-165 -6467 6509 0
-165 -6468 6510 0
-165 -6469 6511 0
-165 -6470 6512 0
-165 -6471 6513 0
-165 -6472 6514 0
-165 -6473 6515 0
-165 -6474 6516 0
-165 -6475 6517 0
-165 -6476 6518 0
-165 -6477 6519 0
-165 -6478 6520 0
-165 -6479 6521 0
-165 -6480 6522 0
-165 -6481 6523 0
-165 -6482 6524 0
-165 -6483 6525 0
-165 -6484 6526 0
-165 -6485 6527 0
-165 -6486 6528 0
-165 -6487 6529 0
-165 -6488 6530 0
-165 -6489 0
-166 6531 0
-6490 6531 0
-6491 6532 0
-6492 6533 0
-6493 6534 0
-6494 6535 0
-6495 6536 0
-6496 6537 0
-6497 6538 0
-6498 6539 0
-6499 6540 0
-6500 6541 0
-6501 6542 0
-6502 6543 0
-6503 6544 0
-6504 6545 0
-6505 6546 0
-6506 6547 0
-6507 6548 0
-6508 6549 0
-6509 6550 0
-6510 6551 0
-6511 6552 0
-6512 6553 0
-6513 6554 0
-6514 6555 0
-6515 6556 0
-6516 6557 0
-6517 6558 0
-6518 6559 0
-6519 6560 0
-6520 6561 0
-6521 6562 0
-6522 6563 0
-6523 6564 0
-6524 6565 0
-6525 6566 0
-6526 6567 0
-6527 6568 0
-6528 6569 0
-6529 6570 0
-6530 6571 0
-166 -6490 6532 0
-166 -6491 6533 0
-166 -6492 6534 0
-166 -6493 6535 0
-166 -6494 6536 0
-166 -6495 6537 0
-166 -6496 6538 0
-166 -6497 6539 0
-166 -6498 6540 0
-166 -6499 6541 0
-166 -6500 6542 0
-166 -6501 6543 0
-166 -6502 6544 0
-166 -6503 6545 0
-166 -6504 6546 0
-166 -6505 6547 0
-166 -6506 6548 0
-166 -6507 6549 0
-166 -6508 6550 0
-166 -6509 6551 0
-166 -6510 6552 0
-166 -6511 6553 0
-166 -6512 6554 0
-166 -6513 6555 0
-166 -6514 6556 0
-166 -6515 6557 0
-166 -6516 6558 0
-166 -6517 6559 0
-166 -6518 6560 0
-166 -6519 6561 0
-166 -6520 6562 0
-166 -6521 6563 0
-166 -6522 6564 0
-166 -6523 6565 0
-166 -6524 6566 0
-166 -6525 6567 0
-166 -6526 6568 0
-166 -6527 6569 0
-166 -6528 6570 0
-166 -6529 6571 0
-166 -6530 0
-167 6572 0
-6531 6572 0
-6532 6573 0
-6533 6574 0
-6534 6575 0
-6535 6576 0
-6536 6577 0
-6537 6578 0
-6538 6579 0
-6539 6580 0
-6540 6581 0
-6541 6582 0
-6542 6583 0
-6543 6584 0
-6544 6585 0
-6545 6586 0
-6546 6587 0
-6547 6588 0
-6548 6589 0
-6549 6590 0
-6550 6591 0
-6551 6592 0
-6552 6593 0
-6553 6594 0
-6554 6595 0
-6555 6596 0
-6556 6597 0
-6557 6598 0
-6558 6599 0
-6559 6600 0
-6560 6601 0
-6561 6602 0
-6562 6603 0
-6563 6604 0
-6564 6605 0
-6565 6606 0
-6566 6607 0
-6567 6608 0
-6568 6609 0
-6569 6610 0
-6570 6611 0
-6571 6612 0
-167 -6531 6573 0
-167 -6532 6574 0
-167 -6533 6575 0
-167 -6534 6576 0
-167 -6535 6577 0
-167 -6536 6578 0
-167 -6537 6579 0
-167 -6538 6580 0
-167 -6539 6581 0
-167 -6540 6582 0
-167 -6541 6583 0
-167 -6542 6584 0
-167 -6543 6585 0
-167 -6544 6586 0
-167 -6545 6587 0
-167 -6546 6588 0
-167 -6547 6589 0
-167 -6548 6590 0
-167 -6549 6591 0
-167 -6550 6592 0
-167 -6551 6593 0
-167 -6552 6594 0
-167 -6553 6595 0
-167 -6554 6596 0
-167 -6555 6597 0
-167 -6556 6598 0
-167 -6557 6599 0
-167 -6558 6600 0
-167 -6559 6601 0
-167 -6560 6602 0
-167 -6561 6603 0
-167 -6562 6604 0
-167 -6563 6605 0
-167 -6564 6606 0
-167 -6565 6607 0
-167 -6566 6608 0
-167 -6567 6609 0
-167 -6568 6610 0
-167 -6569 6611 0
-167 -6570 6612 0
-167 -6571 0
-168 6613 0
-6572 6613 0
-6573 6614 0
-6574 6615 0
-6575 6616 0
-6576 6617 0
-6577 6618 0
-6578 6619 0
-6579 6620 0
-6580 6621 0
-6581 6622 0
-6582 6623 0
-6583 6624 0
-6584 6625 0
-6585 6626 0
-6586 6627 0
-6587 6628 0
-6588 6629 0
-6589 6630 0
-6590 6631 0
-6591 6632 0
-6592 6633 0
-6593 6634 0
-6594 6635 0
-6595 6636 0
-6596 6637 0
-6597 6638 0
-6598 6639 0
-6599 6640 0
-6600 6641 0
-6601 6642 0
-6602 6643 0
-6603 6644 0
-6604 6645 0
-6605 6646 0
-6606 6647 0
-6607 6648 0
-6608 6649 0
-6609 6650 0
-6610 6651 0
-6611 6652 0
-6612 6653 0
-168 -6572 6614 0
-168 -6573 6615 0
-168 -6574 6616 0
-168 -6575 6617 0
-168 -6576 6618 0
-168 -6577 6619 0
-168 -6578 6620 0
-168 -6579 6621 0
-168 -6580 6622 0
-168 -6581 6623 0
-168 -6582 6624 0
-168 -6583 6625 0
-168 -6584 6626 0
-168 -6585 6627 0
-168 -6586 6628 0
-168 -6587 6629 0
-168 -6588 6630 0
-168 -6589 6631 0
-168 -6590 6632 0
-168 -6591 6633 0
-168 -6592 6634 0
-168 -6593 6635 0
-168 -6594 6636 0
-168 -6595 6637 0
-168 -6596 6638 0
-168 -6597 6639 0
-168 -6598 6640 0
-168 -6599 6641 0
-168 -6600 6642 0
-168 -6601 6643 0
-168 -6602 6644 0
-168 -6603 6645 0
-168 -6604 6646 0
-168 -6605 6647 0
-168 -6606 6648 0
-168 -6607 6649 0
-168 -6608 6650 0
-168 -6609 6651 0
-168 -6610 6652 0
-168 -6611 6653 0
-168 -6612 0
-169 6654 0
-6613 6654 0
-6614 6655 0
-6615 6656 0
-6616 6657 0
-6617 6658 0
-6618 6659 0
-6619 6660 0
-6620 6661 0
-6621 6662 0
-6622 6663 0
-6623 6664 0
-6624 6665 0
-6625 6666 0
-6626 6667 0
-6627 6668 0
-6628 6669 0
-6629 6670 0
-6630 6671 0
-6631 6672 0
-6632 6673 0
-6633 6674 0
-6634 6675 0
-6635 6676 0
-6636 6677 0
-6637 6678 0
-6638 6679 0
-6639 6680 0
-6640 6681 0
-6641 6682 0
-6642 6683 0
-6643 6684 0
-6644 6685 0
-6645 6686 0
-6646 6687 0
-6647 6688 0
-6648 6689 0
-6649 6690 0
-6650 6691 0
-6651 6692 0
-6652 6693 0
-6653 6694 0
-169 -6613 6655 0
-169 -6614 6656 0
-169 -6615 6657 0
-169 -6616 6658 0
-169 -6617 6659 0
-169 -6618 6660 0
-169 -6619 6661 0
-169 -6620 6662 0
-169 -6621 6663 0
-169 -6622 6664 0
-169 -6623 6665 0
-169 -6624 6666 0
-169 -6625 6667 0
-169 -6626 6668 0
-169 -6627 6669 0
-169 -6628 6670 0
-169 -6629 6671 0
-169 -6630 6672 0
-169 -6631 6673 0
-169 -6632 6674 0
-169 -6633 6675 0
-169 -6634 6676 0
-169 -6635 6677 0
-169 -6636 6678 0
-169 -6637 6679 0
-169 -6638 6680 0
-169 -6639 6681 0
-169 -6640 6682 0
-169 -6641 6683 0
-169 -6642 6684 0
-169 -6643 6685 0
-169 -6644 6686 0
-169 -6645 6687 0
-169 -6646 6688 0
-169 -6647 6689 0
-169 -6648 6690 0
-169 -6649 6691 0
-169 -6650 6692 0
-169 -6651 6693 0
-169 -6652 6694 0
-169 -6653 0
-170 6695 0
-6654 6695 0
-6655 6696 0
-6656 6697 0
-6657 6698 0
-6658 6699 0
-6659 6700 0
-6660 6701 0
-6661 6702 0
-6662 6703 0
-6663 6704 0
-6664 6705 0
-6665 6706 0
-6666 6707 0
-6667 6708 0
-6668 6709 0
-6669 6710 0
-6670 6711 0
-6671 6712 0
-6672 6713 0
-6673 6714 0
-6674 6715 0
-6675 6716 0
-6676 6717 0
-6677 6718 0
-6678 6719 0
-6679 6720 0
-6680 6721 0
-6681 6722 0
-6682 6723 0
-6683 6724 0
-6684 6725 0
-6685 6726 0
-6686 6727 0
-6687 6728 0
-6688 6729 0
-6689 6730 0
-6690 6731 0
-6691 6732 0
-6692 6733 0
-6693 6734 0
-6694 6735 0
-170 -6654 6696 0
-170 -6655 6697 0
-170 -6656 6698 0
-170 -6657 6699 0
-170 -6658 6700 0
-170 -6659 6701 0
-170 -6660 6702 0
-170 -6661 6703 0
-170 -6662 6704 0
-170 -6663 6705 0
-170 -6664 6706 0
-170 -6665 6707 0
-170 -6666 6708 0
-170 -6667 6709 0
-170 -6668 6710 0
-170 -6669 6711 0
-170 -6670 6712 0
-170 -6671 6713 0
-170 -6672 6714 0
-170 -6673 6715 0
-170 -6674 6716 0
-170 -6675 6717 0
-170 -6676 6718 0
-170 -6677 6719 0
-170 -6678 6720 0
-170 -6679 6721 0
-170 -6680 6722 0
-170 -6681 6723 0
-170 -6682 6724 0
-170 -6683 6725 0
-170 -6684 6726 0
-170 -6685 6727 0
-170 -6686 6728 0
-170 -6687 6729 0
-170 -6688 6730 0
-170 -6689 6731 0
-170 -6690 6732 0
-170 -6691 6733 0
-170 -6692 6734 0
-170 -6693 6735 0
-170 -6694 0
-171 6736 0
-6695 6736 0
-6696 6737 0
-6697 6738 0
-6698 6739 0
-6699 6740 0
-6700 6741 0
-6701 6742 0
-6702 6743 0
-6703 6744 0
-6704 6745 0
-6705 6746 0
-6706 6747 0
-6707 6748 0
-6708 6749 0
-6709 6750 0
-6710 6751 0
-6711 6752 0
-6712 6753 0
-6713 6754 0
-6714 6755 0
-6715 6756 0
-6716 6757 0
-6717 6758 0
-6718 6759 0
-6719 6760 0
-6720 6761 0
-6721 6762 0
-6722 6763 0
-6723 6764 0
-6724 6765 0
-6725 6766 0
-6726 6767 0
-6727 6768 0
-6728 6769 0
-6729 6770 0
-6730 6771 0
-6731 6772 0
-6732 6773 0
-6733 6774 0
-6734 6775 0
-6735 6776 0
-171 -6695 6737 0
-171 -6696 6738 0
-171 -6697 6739 0
-171 -6698 6740 0
-171 -6699 6741 0
-171 -6700 6742 0
-171 -6701 6743 0
-171 -6702 6744 0
-171 -6703 6745 0
-171 -6704 6746 0
-171 -6705 6747 0
-171 -6706 6748 0
-171 -6707 6749 0
-171 -6708 6750 0
-171 -6709 6751 0
-171 -6710 6752 0
-171 -6711 6753 0
-171 -6712 6754 0
-171 -6713 6755 0
-171 -6714 6756 0
-171 -6715 6757 0
-171 -6716 6758 0
-171 -6717 6759 0
-171 -6718 6760 0
-171 -6719 6761 0
-171 -6720 6762 0
-171 -6721 6763 0
-171 -6722 6764 0
-171 -6723 6765 0
-171 -6724 6766 0
-171 -6725 6767 0
-171 -6726 6768 0
-171 -6727 6769 0
-171 -6728 6770 0
-171 -6729 6771 0
-171 -6730 6772 0
-171 -6731 6773 0
-171 -6732 6774 0
-171 -6733 6775 0
-171 -6734 6776 0
-171 -6735 0
-172 6777 0
-6736 6777 0
-6737 6778 0
-6738 6779 0
-6739 6780 0
-6740 6781 0
-6741 6782 0
-6742 6783 0
-6743 6784 0
-6744 6785 0
-6745 6786 0
-6746 6787 0
-6747 6788 0
-6748 6789 0
-6749 6790 0
-6750 6791 0
-6751 6792 0
-6752 6793 0
-6753 6794 0
-6754 6795 0
-6755 6796 0
-6756 6797 0
-6757 6798 0
-6758 6799 0
-6759 6800 0
-6760 6801 0
-6761 6802 0
-6762 6803 0
-6763 6804 0
-6764 6805 0
-6765 6806 0
-6766 6807 0
-6767 6808 0
-6768 6809 0
-6769 6810 0
-6770 6811 0
-6771 6812 0
-6772 6813 0
-6773 6814 0
-6774 6815 0
-6775 6816 0
-6776 6817 0
-172 -6736 6778 0
-172 -6737 6779 0
-172 -6738 6780 0
-172 -6739 6781 0
-172 -6740 6782 0
-172 -6741 6783 0
-172 -6742 6784 0
-172 -6743 6785 0
-172 -6744 6786 0
-172 -6745 6787 0
-172 -6746 6788 0
-172 -6747 6789 0
-172 -6748 6790 0
-172 -6749 6791 0
-172 -6750 6792 0
-172 -6751 6793 0
-172 -6752 6794 0
-172 -6753 6795 0
-172 -6754 6796 0
-172 -6755 6797 0
-172 -6756 6798 0
-172 -6757 6799 0
-172 -6758 6800 0
-172 -6759 6801 0
-172 -6760 6802 0
-172 -6761 6803 0
-172 -6762 6804 0
-172 -6763 6805 0
-172 -6764 6806 0
-172 -6765 6807 0
-172 -6766 6808 0
-172 -6767 6809 0
-172 -6768 6810 0
-172 -6769 6811 0
-172 -6770 6812 0
-172 -6771 6813 0
-172 -6772 6814 0
-172 -6773 6815 0
-172 -6774 6816 0
-172 -6775 6817 0
-172 -6776 0
-173 6818 0
-6777 6818 0
-6778 6819 0
-6779 6820 0
-6780 6821 0
-6781 6822 0
-6782 6823 0
-6783 6824 0
-6784 6825 0
-6785 6826 0
-6786 6827 0
-6787 6828 0
-6788 6829 0
-6789 6830 0
-6790 6831 0
-6791 6832 0
-6792 6833 0
-6793 6834 0
-6794 6835 0
-6795 6836 0
-6796 6837 0
-6797 6838 0
-6798 6839 0
-6799 6840 0
-6800 6841 0
-6801 6842 0
-6802 6843 0
-6803 6844 0
-6804 6845 0
-6805 6846 0
-6806 6847 0
-6807 6848 0
-6808 6849 0
-6809 6850 0
-6810 6851 0
-6811 6852 0
-6812 6853 0
-6813 6854 0
-6814 6855 0
-6815 6856 0
-6816 6857 0
-6817 6858 0
-173 -6777 6819 0
-173 -6778 6820 0
-173 -6779 6821 0
-173 -6780 6822 0
-173 -6781 6823 0
-173 -6782 6824 0
-173 -6783 6825 0
-173 -6784 6826 0
-173 -6785 6827 0
-173 -6786 6828 0
-173 -6787 6829 0
-173 -6788 6830 0
-173 -6789 6831 0
-173 -6790 6832 0
-173 -6791 6833 0
-173 -6792 6834 0
-173 -6793 6835 0
-173 -6794 6836 0
-173 -6795 6837 0
-173 -6796 6838 0
-173 -6797 6839 0
-173 -6798 6840 0
-173 -6799 6841 0
-173 -6800 6842 0
-173 -6801 6843 0
-173 -6802 6844 0
-173 -6803 6845 0
-173 -6804 6846 0
-173 -6805 6847 0
-173 -6806 6848 0
-173 -6807 6849 0
-173 -6808 6850 0
-173 -6809 6851 0
-173 -6810 6852 0
-173 -6811 6853 0
-173 -6812 6854 0
-173 -6813 6855 0
-173 -6814 6856 0
-173 -6815 6857 0
-173 -6816 6858 0
-173 -6817 0
-174 6859 0
-6818 6859 0
-6819 6860 0
-6820 6861 0
-6821 6862 0
-6822 6863 0
-6823 6864 0
-6824 6865 0
-6825 6866 0
-6826 6867 0
-6827 6868 0
-6828 6869 0
-6829 6870 0
-6830 6871 0
-6831 6872 0
-6832 6873 0
-6833 6874 0
-6834 6875 0
-6835 6876 0
-6836 6877 0
-6837 6878 0
-6838 6879 0
-6839 6880 0
-6840 6881 0
-6841 6882 0
-6842 6883 0
-6843 6884 0
-6844 6885 0
-6845 6886 0
-6846 6887 0
-6847 6888 0
-6848 6889 0
-6849 6890 0
-6850 6891 0
-6851 6892 0
-6852 6893 0
-6853 6894 0
-6854 6895 0
-6855 6896 0
-6856 6897 0
-6857 6898 0
-6858 6899 0
-174 -6818 6860 0
-174 -6819 6861 0
-174 -6820 6862 0
-174 -6821 6863 0
-174 -6822 6864 0
-174 -6823 6865 0
-174 -6824 6866 0
-174 -6825 6867 0
-174 -6826 6868 0
-174 -6827 6869 0
-174 -6828 6870 0
-174 -6829 6871 0
-174 -6830 6872 0
-174 -6831 6873 0
-174 -6832 6874 0
-174 -6833 6875 0
-174 -6834 6876 0
-174 -6835 6877 0
-174 -6836 6878 0
-174 -6837 6879 0
-174 -6838 6880 0
-174 -6839 6881 0
-174 -6840 6882 0
-174 -6841 6883 0
-174 -6842 6884 0
-174 -6843 6885 0
-174 -6844 6886 0
-174 -6845 6887 0
-174 -6846 6888 0
-174 -6847 6889 0
-174 -6848 6890 0
-174 -6849 6891 0
-174 -6850 6892 0
-174 -6851 6893 0
-174 -6852 6894 0
-174 -6853 6895 0
-174 -6854 6896 0
-174 -6855 6897 0
-174 -6856 6898 0
-174 -6857 6899 0
-174 -6858 0
-175 6900 0
-6859 6900 0
-6860 6901 0
-6861 6902 0
-6862 6903 0
-6863 6904 0
-6864 6905 0
-6865 6906 0
-6866 6907 0
-6867 6908 0
-6868 6909 0
-6869 6910 0
-6870 6911 0
-6871 6912 0
-6872 6913 0
-6873 6914 0
-6874 6915 0
-6875 6916 0
-6876 6917 0
-6877 6918 0
-6878 6919 0
-6879 6920 0
-6880 6921 0
-6881 6922 0
-6882 6923 0
-6883 6924 0
-6884 6925 0
-6885 6926 0
-6886 6927 0
-6887 6928 0
-6888 6929 0
-6889 6930 0
-6890 6931 0
-6891 6932 0
-6892 6933 0
-6893 6934 0
-6894 6935 0
-6895 6936 0
-6896 6937 0
-6897 6938 0
-6898 6939 0
-6899 6940 0
-175 -6859 6901 0
-175 -6860 6902 0
-175 -6861 6903 0
-175 -6862 6904 0
-175 -6863 6905 0
-175 -6864 6906 0
-175 -6865 6907 0
-175 -6866 6908 0
-175 -6867 6909 0
-175 -6868 6910 0
-175 -6869 6911 0
-175 -6870 6912 0
-175 -6871 6913 0
-175 -6872 6914 0
-175 -6873 6915 0
-175 -6874 6916 0
-175 -6875 6917 0
-175 -6876 6918 0
-175 -6877 6919 0
-175 -6878 6920 0
-175 -6879 6921 0
-175 -6880 6922 0
-175 -6881 6923 0
-175 -6882 6924 0
-175 -6883 6925 0
-175 -6884 6926 0
-175 -6885 6927 0
-175 -6886 6928 0
-175 -6887 6929 0
-175 -6888 6930 0
-175 -6889 6931 0
-175 -6890 6932 0
-175 -6891 6933 0
-175 -6892 6934 0
-175 -6893 6935 0
-175 -6894 6936 0
-175 -6895 6937 0
-175 -6896 6938 0
-175 -6897 6939 0
-175 -6898 6940 0
-175 -6899 0
-176 6941 0
-6900 6941 0
-6901 6942 0
-6902 6943 0
-6903 6944 0
-6904 6945 0
-6905 6946 0
-6906 6947 0
-6907 6948 0
-6908 6949 0
-6909 6950 0
-6910 6951 0
-6911 6952 0
-6912 6953 0
-6913 6954 0
-6914 6955 0
-6915 6956 0
-6916 6957 0
-6917 6958 0
-6918 6959 0
-6919 6960 0
-6920 6961 0
-6921 6962 0
-6922 6963 0
-6923 6964 0
-6924 6965 0
-6925 6966 0
-6926 6967 0
-6927 6968 0
-6928 6969 0
-6929 6970 0
-6930 6971 0
-6931 6972 0
-6932 6973 0
-6933 6974 0
-6934 6975 0
-6935 6976 0
-6936 6977 0
-6937 6978 0
-6938 6979 0
-6939 6980 0
-6940 6981 0
-176 -6900 6942 0
-176 -6901 6943 0
-176 -6902 6944 0
-176 -6903 6945 0
-176 -6904 6946 0
-176 -6905 6947 0
-176 -6906 6948 0
-176 -6907 6949 0
-176 -6908 6950 0
-176 -6909 6951 0
-176 -6910 6952 0
-176 -6911 6953 0
-176 -6912 6954 0
-176 -6913 6955 0
-176 -6914 6956 0
-176 -6915 6957 0
-176 -6916 6958 0
-176 -6917 6959 0
-176 -6918 6960 0
-176 -6919 6961 0
-176 -6920 6962 0
-176 -6921 6963 0
-176 -6922 6964 0
-176 -6923 6965 0
-176 -6924 6966 0
-176 -6925 6967 0
-176 -6926 6968 0
-176 -6927 6969 0
-176 -6928 6970 0
-176 -6929 6971 0
-176 -6930 6972 0
-176 -6931 6973 0
-176 -6932 6974 0
-176 -6933 6975 0
-176 -6934 6976 0
-176 -6935 6977 0
-176 -6936 6978 0
-176 -6937 6979 0
-176 -6938 6980 0
-176 -6939 6981 0
-176 -6940 0
-177 6982 0
-6941 6982 0
-6942 6983 0
-6943 6984 0
-6944 6985 0
-6945 6986 0
-6946 6987 0
-6947 6988 0
-6948 6989 0
-6949 6990 0
-6950 6991 0
-6951 6992 0
-6952 6993 0
-6953 6994 0
-6954 6995 0
-6955 6996 0
-6956 6997 0
-6957 6998 0
-6958 6999 0
-6959 7000 0
-6960 7001 0
-6961 7002 0
-6962 7003 0
-6963 7004 0
-6964 7005 0
-6965 7006 0
-6966 7007 0
-6967 7008 0
-6968 7009 0
-6969 7010 0
-6970 7011 0
-6971 7012 0
-6972 7013 0
-6973 7014 0
-6974 7015 0
-6975 7016 0
-6976 7017 0
-6977 7018 0
-6978 7019 0
-6979 7020 0
-6980 7021 0
-6981 7022 0
-177 -6941 6983 0
-177 -6942 6984 0
-177 -6943 6985 0
-177 -6944 6986 0
-177 -6945 6987 0
-177 -6946 6988 0
-177 -6947 6989 0
-177 -6948 6990 0
-177 -6949 6991 0
-177 -6950 6992 0
-177 -6951 6993 0
-177 -6952 6994 0
-177 -6953 6995 0
-177 -6954 6996 0
-177 -6955 6997 0
-177 -6956 6998 0
-177 -6957 6999 0
-177 -6958 7000 0
-177 -6959 7001 0
-177 -6960 7002 0
-177 -6961 7003 0
-177 -6962 7004 0
-177 -6963 7005 0
-177 -6964 7006 0
-177 -6965 7007 0
-177 -6966 7008 0
-177 -6967 7009 0
-177 -6968 7010 0
-177 -6969 7011 0
-177 -6970 7012 0
-177 -6971 7013 0
-177 -6972 7014 0
-177 -6973 7015 0
-177 -6974 7016 0
-177 -6975 7017 0
-177 -6976 7018 0
-177 -6977 7019 0
-177 -6978 7020 0
-177 -6979 7021 0
-177 -6980 7022 0
-177 -6981 0
-178 7023 0
-6982 7023 0
-6983 7024 0
-6984 7025 0
-6985 7026 0
-6986 7027 0
-6987 7028 0
-6988 7029 0
-6989 7030 0
-6990 7031 0
-6991 7032 0
-6992 7033 0
-6993 7034 0
-6994 7035 0
-6995 7036 0
-6996 7037 0
-6997 7038 0
-6998 7039 0
-6999 7040 0
-7000 7041 0
-7001 7042 0
-7002 7043 0
-7003 7044 0
-7004 7045 0
-7005 7046 0
-7006 7047 0
-7007 7048 0
-7008 7049 0
-7009 7050 0
-7010 7051 0
-7011 7052 0
-7012 7053 0
-7013 7054 0
-7014 7055 0
-7015 7056 0
-7016 7057 0
-7017 7058 0
-7018 7059 0
-7019 7060 0
-7020 7061 0
-7021 7062 0
-7022 7063 0
-178 -6982 7024 0
-178 -6983 7025 0
-178 -6984 7026 0
-178 -6985 7027 0
-178 -6986 7028 0
-178 -6987 7029 0
-178 -6988 7030 0
-178 -6989 7031 0
-178 -6990 7032 0
-178 -6991 7033 0
-178 -6992 7034 0
-178 -6993 7035 0
-178 -6994 7036 0
-178 -6995 7037 0
-178 -6996 7038 0
-178 -6997 7039 0
-178 -6998 7040 0
-178 -6999 7041 0
-178 -7000 7042 0
-178 -7001 7043 0
-178 -7002 7044 0
-178 -7003 7045 0
-178 -7004 7046 0
-178 -7005 7047 0
-178 -7006 7048 0
-178 -7007 7049 0
-178 -7008 7050 0
-178 -7009 7051 0
-178 -7010 7052 0
-178 -7011 7053 0
-178 -7012 7054 0
-178 -7013 7055 0
-178 -7014 7056 0
-178 -7015 7057 0
-178 -7016 7058 0
-178 -7017 7059 0
-178 -7018 7060 0
-178 -7019 7061 0
-178 -7020 7062 0
-178 -7021 7063 0
-178 -7022 0
-179 7064 0
-7023 7064 0
-7024 7065 0
-7025 7066 0
-7026 7067 0
-7027 7068 0
-7028 7069 0
-7029 7070 0
-7030 7071 0
-7031 7072 0
-7032 7073 0
-7033 7074 0
-7034 7075 0
-7035 7076 0
-7036 7077 0
-7037 7078 0
-7038 7079 0
-7039 7080 0
-7040 7081 0
-7041 7082 0
-7042 7083 0
-7043 7084 0
-7044 7085 0
-7045 7086 0
-7046 7087 0
-7047 7088 0
-7048 7089 0
-7049 7090 0
-7050 7091 0
-7051 7092 0
-7052 7093 0
-7053 7094 0
-7054 7095 0
-7055 7096 0
-7056 7097 0
-7057 7098 0
-7058 7099 0
-7059 7100 0
-7060 7101 0
-7061 7102 0
-7062 7103 0
-7063 7104 0
-179 -7023 7065 0
-179 -7024 7066 0
-179 -7025 7067 0
-179 -7026 7068 0
-179 -7027 7069 0
-179 -7028 7070 0
-179 -7029 7071 0
-179 -7030 7072 0
-179 -7031 7073 0
-179 -7032 7074 0
-179 -7033 7075 0
-179 -7034 7076 0
-179 -7035 7077 0
-179 -7036 7078 0
-179 -7037 7079 0
-179 -7038 7080 0
-179 -7039 7081 0
-179 -7040 7082 0
-179 -7041 7083 0
-179 -7042 7084 0
-179 -7043 7085 0
-179 -7044 7086 0
-179 -7045 7087 0
-179 -7046 7088 0
-179 -7047 7089 0
-179 -7048 7090 0
-179 -7049 7091 0
-179 -7050 7092 0
-179 -7051 7093 0
-179 -7052 7094 0
-179 -7053 7095 0
-179 -7054 7096 0
-179 -7055 7097 0
-179 -7056 7098 0
-179 -7057 7099 0
-179 -7058 7100 0
-179 -7059 7101 0
-179 -7060 7102 0
-179 -7061 7103 0
-179 -7062 7104 0
-179 -7063 0
-180 7105 0
-7064 7105 0
-7065 7106 0
-7066 7107 0
-7067 7108 0
-7068 7109 0
-7069 7110 0
-7070 7111 0
-7071 7112 0
-7072 7113 0
-7073 7114 0
-7074 7115 0
-7075 7116 0
-7076 7117 0
-7077 7118 0
-7078 7119 0
-7079 7120 0
-7080 7121 0
-7081 7122 0
-7082 7123 0
-7083 7124 0
-7084 7125 0
-7085 7126 0
-7086 7127 0
-7087 7128 0
-7088 7129 0
-7089 7130 0
-7090 7131 0
-7091 7132 0
-7092 7133 0
-7093 7134 0
-7094 7135 0
-7095 7136 0
-7096 7137 0
-7097 7138 0
-7098 7139 0
-7099 7140 0
-7100 7141 0
-7101 7142 0
-7102 7143 0
-7103 7144 0
-7104 7145 0
-180 -7064 7106 0
-180 -7065 7107 0
-180 -7066 7108 0
-180 -7067 7109 0
-180 -7068 7110 0
-180 -7069 7111 0
-180 -7070 7112 0
-180 -7071 7113 0
-180 -7072 7114 0
-180 -7073 7115 0
-180 -7074 7116 0
-180 -7075 7117 0
-180 -7076 7118 0
-180 -7077 7119 0
-180 -7078 7120 0
-180 -7079 7121 0
-180 -7080 7122 0
-180 -7081 7123 0
-180 -7082 7124 0
-180 -7083 7125 0
-180 -7084 7126 0
-180 -7085 7127 0
-180 -7086 7128 0
-180 -7087 7129 0
-180 -7088 7130 0
-180 -7089 7131 0
-180 -7090 7132 0
-180 -7091 7133 0
-180 -7092 7134 0
-180 -7093 7135 0
-180 -7094 7136 0
-180 -7095 7137 0
-180 -7096 7138 0
-180 -7097 7139 0
-180 -7098 7140 0
-180 -7099 7141 0
-180 -7100 7142 0
-180 -7101 7143 0
-180 -7102 7144 0
-180 -7103 7145 0
-180 -7104 0
-181 7146 0
-7105 7146 0
-7106 7147 0
-7107 7148 0
-7108 7149 0
-7109 7150 0
-7110 7151 0
-7111 7152 0
-7112 7153 0
-7113 7154 0
-7114 7155 0
-7115 7156 0
-7116 7157 0
-7117 7158 0
-7118 7159 0
-7119 7160 0
-7120 7161 0
-7121 7162 0
-7122 7163 0
-7123 7164 0
-7124 7165 0
-7125 7166 0
-7126 7167 0
-7127 7168 0
-7128 7169 0
-7129 7170 0
-7130 7171 0
-7131 7172 0
-7132 7173 0
-7133 7174 0
-7134 7175 0
-7135 7176 0
-7136 7177 0
-7137 7178 0
-7138 7179 0
-7139 7180 0
-7140 7181 0
-7141 7182 0
-7142 7183 0
-7143 7184 0
-7144 7185 0
-7145 7186 0
-181 -7105 7147 0
-181 -7106 7148 0
-181 -7107 7149 0
-181 -7108 7150 0
-181 -7109 7151 0
-181 -7110 7152 0
-181 -7111 7153 0
-181 -7112 7154 0
-181 -7113 7155 0
-181 -7114 7156 0
-181 -7115 7157 0
-181 -7116 7158 0
-181 -7117 7159 0
-181 -7118 7160 0
-181 -7119 7161 0
-181 -7120 7162 0
-181 -7121 7163 0
-181 -7122 7164 0
-181 -7123 7165 0
-181 -7124 7166 0
-181 -7125 7167 0
-181 -7126 7168 0
-181 -7127 7169 0
-181 -7128 7170 0
-181 -7129 7171 0
-181 -7130 7172 0
-181 -7131 7173 0
-181 -7132 7174 0
-181 -7133 7175 0
-181 -7134 7176 0
-181 -7135 7177 0
-181 -7136 7178 0
-181 -7137 7179 0
-181 -7138 7180 0
-181 -7139 7181 0
-181 -7140 7182 0
-181 -7141 7183 0
-181 -7142 7184 0
-181 -7143 7185 0
-181 -7144 7186 0
-181 -7145 0
-182 7187 0
-7146 7187 0
-7147 7188 0
-7148 7189 0
-7149 7190 0
-7150 7191 0
-7151 7192 0
-7152 7193 0
-7153 7194 0
-7154 7195 0
-7155 7196 0
-7156 7197 0
-7157 7198 0
-7158 7199 0
-7159 7200 0
-7160 7201 0
-7161 7202 0
-7162 7203 0
-7163 7204 0
-7164 7205 0
-7165 7206 0
-7166 7207 0
-7167 7208 0
-7168 7209 0
-7169 7210 0
-7170 7211 0
-7171 7212 0
-7172 7213 0
-7173 7214 0
-7174 7215 0
-7175 7216 0
-7176 7217 0
-7177 7218 0
-7178 7219 0
-7179 7220 0
-7180 7221 0
-7181 7222 0
-7182 7223 0
-7183 7224 0
-7184 7225 0
-7185 7226 0
-7186 7227 0
-182 -7146 7188 0
-182 -7147 7189 0
-182 -7148 7190 0
-182 -7149 7191 0
-182 -7150 7192 0
-182 -7151 7193 0
-182 -7152 7194 0
-182 -7153 7195 0
-182 -7154 7196 0
-182 -7155 7197 0
-182 -7156 7198 0
-182 -7157 7199 0
-182 -7158 7200 0
-182 -7159 7201 0
-182 -7160 7202 0
-182 -7161 7203 0
-182 -7162 7204 0
-182 -7163 7205 0
-182 -7164 7206 0
-182 -7165 7207 0
-182 -7166 7208 0
-182 -7167 7209 0
-182 -7168 7210 0
-182 -7169 7211 0
-182 -7170 7212 0
-182 -7171 7213 0
-182 -7172 7214 0
-182 -7173 7215 0
-182 -7174 7216 0
-182 -7175 7217 0
-182 -7176 7218 0
-182 -7177 7219 0
-182 -7178 7220 0
-182 -7179 7221 0
-182 -7180 7222 0
-182 -7181 7223 0
-182 -7182 7224 0
-182 -7183 7225 0
-182 -7184 7226 0
-182 -7185 7227 0
-182 -7186 0
-183 7228 0
-7187 7228 0
-7188 7229 0
-7189 7230 0
-7190 7231 0
-7191 7232 0
-7192 7233 0
-7193 7234 0
-7194 7235 0
-7195 7236 0
-7196 7237 0
-7197 7238 0
-7198 7239 0
-7199 7240 0
-7200 7241 0
-7201 7242 0
-7202 7243 0
-7203 7244 0
-7204 7245 0
-7205 7246 0
-7206 7247 0
-7207 7248 0
-7208 7249 0
-7209 7250 0
-7210 7251 0
-7211 7252 0
-7212 7253 0
-7213 7254 0
-7214 7255 0
-7215 7256 0
-7216 7257 0
-7217 7258 0
-7218 7259 0
-7219 7260 0
-7220 7261 0
-7221 7262 0
-7222 7263 0
-7223 7264 0
-7224 7265 0
-7225 7266 0
-7226 7267 0
-7227 7268 0
-183 -7187 7229 0
-183 -7188 7230 0
-183 -7189 7231 0
-183 -7190 7232 0
-183 -7191 7233 0
-183 -7192 7234 0
-183 -7193 7235 0
-183 -7194 7236 0
-183 -7195 7237 0
-183 -7196 7238 0
-183 -7197 7239 0
-183 -7198 7240 0
-183 -7199 7241 0
-183 -7200 7242 0
-183 -7201 7243 0
-183 -7202 7244 0
-183 -7203 7245 0
-183 -7204 7246 0
-183 -7205 7247 0
-183 -7206 7248 0
-183 -7207 7249 0
-183 -7208 7250 0
-183 -7209 7251 0
-183 -7210 7252 0
-183 -7211 7253 0
-183 -7212 7254 0
-183 -7213 7255 0
-183 -7214 7256 0
-183 -7215 7257 0
-183 -7216 7258 0
-183 -7217 7259 0
-183 -7218 7260 0
-183 -7219 7261 0
-183 -7220 7262 0
-183 -7221 7263 0
-183 -7222 7264 0
-183 -7223 7265 0
-183 -7224 7266 0
-183 -7225 7267 0
-183 -7226 7268 0
-183 -7227 0
-184 7269 0
-7228 7269 0
-7229 7270 0
-7230 7271 0
-7231 7272 0
-7232 7273 0
-7233 7274 0
-7234 7275 0
-7235 7276 0
-7236 7277 0
-7237 7278 0
-7238 7279 0
-7239 7280 0
-7240 7281 0
-7241 7282 0
-7242 7283 0
-7243 7284 0
-7244 7285 0
-7245 7286 0
-7246 7287 0
-7247 7288 0
-7248 7289 0
-7249 7290 0
-7250 7291 0
-7251 7292 0
-7252 7293 0
-7253 7294 0
-7254 7295 0
-7255 7296 0
-7256 7297 0
-7257 7298 0
-7258 7299 0
-7259 7300 0
-7260 7301 0
-7261 7302 0
-7262 7303 0
-7263 7304 0
-7264 7305 0
-7265 7306 0
-7266 7307 0
-7267 7308 0
-7268 7309 0
-184 -7228 7270 0
-184 -7229 7271 0
-184 -7230 7272 0
-184 -7231 7273 0
-184 -7232 7274 0
-184 -7233 7275 0
-184 -7234 7276 0
-184 -7235 7277 0
-184 -7236 7278 0
-184 -7237 7279 0
-184 -7238 7280 0
-184 -7239 7281 0
-184 -7240 7282 0
-184 -7241 7283 0
-184 -7242 7284 0
-184 -7243 7285 0
-184 -7244 7286 0
-184 -7245 7287 0
-184 -7246 7288 0
-184 -7247 7289 0
-184 -7248 7290 0
-184 -7249 7291 0
-184 -7250 7292 0
-184 -7251 7293 0
-184 -7252 7294 0
-184 -7253 7295 0
-184 -7254 7296 0
-184 -7255 7297 0
-184 -7256 7298 0
-184 -7257 7299 0
-184 -7258 7300 0
-184 -7259 7301 0
-184 -7260 7302 0
-184 -7261 7303 0
-184 -7262 7304 0
-184 -7263 7305 0
-184 -7264 7306 0
-184 -7265 7307 0
-184 -7266 7308 0
-184 -7267 7309 0
-184 -7268 0
-185 7310 0
-7269 7310 0
-7270 7311 0
-7271 7312 0
-7272 7313 0
-7273 7314 0
-7274 7315 0
-7275 7316 0
-7276 7317 0
-7277 7318 0
-7278 7319 0
-7279 7320 0
-7280 7321 0
-7281 7322 0
-7282 7323 0
-7283 7324 0
-7284 7325 0
-7285 7326 0
-7286 7327 0
-7287 7328 0
-7288 7329 0
-7289 7330 0
-7290 7331 0
-7291 7332 0
-7292 7333 0
-7293 7334 0
-7294 7335 0
-7295 7336 0
-7296 7337 0
-7297 7338 0
-7298 7339 0
-7299 7340 0
-7300 7341 0
-7301 7342 0
-7302 7343 0
-7303 7344 0
-7304 7345 0
-7305 7346 0
-7306 7347 0
-7307 7348 0
-7308 7349 0
-7309 7350 0
-185 -7269 7311 0
-185 -7270 7312 0
-185 -7271 7313 0
-185 -7272 7314 0
-185 -7273 7315 0
-185 -7274 7316 0
-185 -7275 7317 0
-185 -7276 7318 0
-185 -7277 7319 0
-185 -7278 7320 0
-185 -7279 7321 0
-185 -7280 7322 0
-185 -7281 7323 0
-185 -7282 7324 0
-185 -7283 7325 0
-185 -7284 7326 0
-185 -7285 7327 0
-185 -7286 7328 0
-185 -7287 7329 0
-185 -7288 7330 0
-185 -7289 7331 0
-185 -7290 7332 0
-185 -7291 7333 0
-185 -7292 7334 0
-185 -7293 7335 0
-185 -7294 7336 0
-185 -7295 7337 0
-185 -7296 7338 0
-185 -7297 7339 0
-185 -7298 7340 0
-185 -7299 7341 0
-185 -7300 7342 0
-185 -7301 7343 0
-185 -7302 7344 0
-185 -7303 7345 0
-185 -7304 7346 0
-185 -7305 7347 0
-185 -7306 7348 0
-185 -7307 7349 0
-185 -7308 7350 0
-185 -7309 0
-186 7351 0
-7310 7351 0
-7311 7352 0
-7312 7353 0
-7313 7354 0
-7314 7355 0
-7315 7356 0
-7316 7357 0
-7317 7358 0
-7318 7359 0
-7319 7360 0
-7320 7361 0
-7321 7362 0
-7322 7363 0
-7323 7364 0
-7324 7365 0
-7325 7366 0
-7326 7367 0
-7327 7368 0
-7328 7369 0
-7329 7370 0
-7330 7371 0
-7331 7372 0
-7332 7373 0
-7333 7374 0
-7334 7375 0
-7335 7376 0
-7336 7377 0
-7337 7378 0
-7338 7379 0
-7339 7380 0
-7340 7381 0
-7341 7382 0
-7342 7383 0
-7343 7384 0
-7344 7385 0
-7345 7386 0
-7346 7387 0
-7347 7388 0
-7348 7389 0
-7349 7390 0
-7350 7391 0
-186 -7310 7352 0
-186 -7311 7353 0
-186 -7312 7354 0
-186 -7313 7355 0
-186 -7314 7356 0
-186 -7315 7357 0
-186 -7316 7358 0
-186 -7317 7359 0
-186 -7318 7360 0
-186 -7319 7361 0
-186 -7320 7362 0
-186 -7321 7363 0
-186 -7322 7364 0
-186 -7323 7365 0
-186 -7324 7366 0
-186 -7325 7367 0
-186 -7326 7368 0
-186 -7327 7369 0
-186 -7328 7370 0
-186 -7329 7371 0
-186 -7330 7372 0
-186 -7331 7373 0
-186 -7332 7374 0
-186 -7333 7375 0
-186 -7334 7376 0
-186 -7335 7377 0
-186 -7336 7378 0
-186 -7337 7379 0
-186 -7338 7380 0
-186 -7339 7381 0
-186 -7340 7382 0
-186 -7341 7383 0
-186 -7342 7384 0
-186 -7343 7385 0
-186 -7344 7386 0
-186 -7345 7387 0
-186 -7346 7388 0
-186 -7347 7389 0
-186 -7348 7390 0
-186 -7349 7391 0
-186 -7350 0
-187 7392 0
-7351 7392 0
-7352 7393 0
-7353 7394 0
-7354 7395 0
-7355 7396 0
-7356 7397 0
-7357 7398 0
-7358 7399 0
-7359 7400 0
-7360 7401 0
-7361 7402 0
-7362 7403 0
-7363 7404 0
-7364 7405 0
-7365 7406 0
-7366 7407 0
-7367 7408 0
-7368 7409 0
-7369 7410 0
-7370 7411 0
-7371 7412 0
-7372 7413 0
-7373 7414 0
-7374 7415 0
-7375 7416 0
-7376 7417 0
-7377 7418 0
-7378 7419 0
-7379 7420 0
-7380 7421 0
-7381 7422 0
-7382 7423 0
-7383 7424 0
-7384 7425 0
-7385 7426 0
-7386 7427 0
-7387 7428 0
-7388 7429 0
-7389 7430 0
-7390 7431 0
-7391 7432 0
-187 -7351 7393 0
-187 -7352 7394 0
-187 -7353 7395 0
-187 -7354 7396 0
-187 -7355 7397 0
-187 -7356 7398 0
-187 -7357 7399 0
-187 -7358 7400 0
-187 -7359 7401 0
-187 -7360 7402 0
-187 -7361 7403 0
-187 -7362 7404 0
-187 -7363 7405 0
-187 -7364 7406 0
-187 -7365 7407 0
-187 -7366 7408 0
-187 -7367 7409 0
-187 -7368 7410 0
-187 -7369 7411 0
-187 -7370 7412 0
-187 -7371 7413 0
-187 -7372 7414 0
-187 -7373 7415 0
-187 -7374 7416 0
-187 -7375 7417 0
-187 -7376 7418 0
-187 -7377 7419 0
-187 -7378 7420 0
-187 -7379 7421 0
-187 -7380 7422 0
-187 -7381 7423 0
-187 -7382 7424 0
-187 -7383 7425 0
-187 -7384 7426 0
-187 -7385 7427 0
-187 -7386 7428 0
-187 -7387 7429 0
-187 -7388 7430 0
-187 -7389 7431 0
-187 -7390 7432 0
-187 -7391 0
-188 7433 0
-7392 7433 0
-7393 7434 0
-7394 7435 0
-7395 7436 0
-7396 7437 0
-7397 7438 0
-7398 7439 0
-7399 7440 0
-7400 7441 0
-7401 7442 0
-7402 7443 0
-7403 7444 0
-7404 7445 0
-7405 7446 0
-7406 7447 0
-7407 7448 0
-7408 7449 0
-7409 7450 0
-7410 7451 0
-7411 7452 0
-7412 7453 0
-7413 7454 0
-7414 7455 0
-7415 7456 0
-7416 7457 0
-7417 7458 0
-7418 7459 0
-7419 7460 0
-7420 7461 0
-7421 7462 0
-7422 7463 0
-7423 7464 0
-7424 7465 0
-7425 7466 0
-7426 7467 0
-7427 7468 0
-7428 7469 0
-7429 7470 0
-7430 7471 0
-7431 7472 0
-7432 7473 0
-188 -7392 7434 0
-188 -7393 7435 0
-188 -7394 7436 0
-188 -7395 7437 0
-188 -7396 7438 0
-188 -7397 7439 0
-188 -7398 7440 0
-188 -7399 7441 0
-188 -7400 7442 0
-188 -7401 7443 0
-188 -7402 7444 0
-188 -7403 7445 0
-188 -7404 7446 0
-188 -7405 7447 0
-188 -7406 7448 0
-188 -7407 7449 0
-188 -7408 7450 0
-188 -7409 7451 0
-188 -7410 7452 0
-188 -7411 7453 0
-188 -7412 7454 0
-188 -7413 7455 0
-188 -7414 7456 0
-188 -7415 7457 0
-188 -7416 7458 0
-188 -7417 7459 0
-188 -7418 7460 0
-188 -7419 7461 0
-188 -7420 7462 0
-188 -7421 7463 0
-188 -7422 7464 0
-188 -7423 7465 0
-188 -7424 7466 0
-188 -7425 7467 0
-188 -7426 7468 0
-188 -7427 7469 0
-188 -7428 7470 0
-188 -7429 7471 0
-188 -7430 7472 0
-188 -7431 7473 0
-188 -7432 0
-189 7474 0
-7433 7474 0
-7434 7475 0
-7435 7476 0
-7436 7477 0
-7437 7478 0
-7438 7479 0
-7439 7480 0
-7440 7481 0
-7441 7482 0
-7442 7483 0
-7443 7484 0
-7444 7485 0
-7445 7486 0
-7446 7487 0
-7447 7488 0
-7448 7489 0
-7449 7490 0
-7450 7491 0
-7451 7492 0
-7452 7493 0
-7453 7494 0
-7454 7495 0
-7455 7496 0
-7456 7497 0
-7457 7498 0
-7458 7499 0
-7459 7500 0
-7460 7501 0
-7461 7502 0
-7462 7503 0
-7463 7504 0
-7464 7505 0
-7465 7506 0
-7466 7507 0
-7467 7508 0
-7468 7509 0
-7469 7510 0
-7470 7511 0
-7471 7512 0
-7472 7513 0
-7473 7514 0
-189 -7433 7475 0
-189 -7434 7476 0
-189 -7435 7477 0
-189 -7436 7478 0
-189 -7437 7479 0
-189 -7438 7480 0
-189 -7439 7481 0
-189 -7440 7482 0
-189 -7441 7483 0
-189 -7442 7484 0
-189 -7443 7485 0
-189 -7444 7486 0
-189 -7445 7487 0
-189 -7446 7488 0
-189 -7447 7489 0
-189 -7448 7490 0
-189 -7449 7491 0
-189 -7450 7492 0
-189 -7451 7493 0
-189 -7452 7494 0
-189 -7453 7495 0
-189 -7454 7496 0
-189 -7455 7497 0
-189 -7456 7498 0
-189 -7457 7499 0
-189 -7458 7500 0
-189 -7459 7501 0
-189 -7460 7502 0
-189 -7461 7503 0
-189 -7462 7504 0
-189 -7463 7505 0
-189 -7464 7506 0
-189 -7465 7507 0
-189 -7466 7508 0
-189 -7467 7509 0
-189 -7468 7510 0
-189 -7469 7511 0
-189 -7470 7512 0
-189 -7471 7513 0
-189 -7472 7514 0
-189 -7473 0
-190 7515 0
-7474 7515 0
-7475 7516 0
-7476 7517 0
-7477 7518 0
-7478 7519 0
-7479 7520 0
-7480 7521 0
-7481 7522 0
-7482 7523 0
-7483 7524 0
-7484 7525 0
-7485 7526 0
-7486 7527 0
-7487 7528 0
-7488 7529 0
-7489 7530 0
-7490 7531 0
-7491 7532 0
-7492 7533 0
-7493 7534 0
-7494 7535 0
-7495 7536 0
-7496 7537 0
-7497 7538 0
-7498 7539 0
-7499 7540 0
-7500 7541 0
-7501 7542 0
-7502 7543 0
-7503 7544 0
-7504 7545 0
-7505 7546 0
-7506 7547 0
-7507 7548 0
-7508 7549 0
-7509 7550 0
-7510 7551 0
-7511 7552 0
-7512 7553 0
-7513 7554 0
-7514 7555 0
-190 -7474 7516 0
-190 -7475 7517 0
-190 -7476 7518 0
-190 -7477 7519 0
-190 -7478 7520 0
-190 -7479 7521 0
-190 -7480 7522 0
-190 -7481 7523 0
-190 -7482 7524 0
-190 -7483 7525 0
-190 -7484 7526 0
-190 -7485 7527 0
-190 -7486 7528 0
-190 -7487 7529 0
-190 -7488 7530 0
-190 -7489 7531 0
-190 -7490 7532 0
-190 -7491 7533 0
-190 -7492 7534 0
-190 -7493 7535 0
-190 -7494 7536 0
-190 -7495 7537 0
-190 -7496 7538 0
-190 -7497 7539 0
-190 -7498 7540 0
-190 -7499 7541 0
-190 -7500 7542 0
-190 -7501 7543 0
-190 -7502 7544 0
-190 -7503 7545 0
-190 -7504 7546 0
-190 -7505 7547 0
-190 -7506 7548 0
-190 -7507 7549 0
-190 -7508 7550 0
-190 -7509 7551 0
-190 -7510 7552 0
-190 -7511 7553 0
-190 -7512 7554 0
-190 -7513 7555 0
-190 -7514 0
-191 7556 0
-7515 7556 0
-7516 7557 0
-7517 7558 0
-7518 7559 0
-7519 7560 0
-7520 7561 0
-7521 7562 0
-7522 7563 0
-7523 7564 0
-7524 7565 0
-7525 7566 0
-7526 7567 0
-7527 7568 0
-7528 7569 0
-7529 7570 0
-7530 7571 0
-7531 7572 0
-7532 7573 0
-7533 7574 0
-7534 7575 0
-7535 7576 0
-7536 7577 0
-7537 7578 0
-7538 7579 0
-7539 7580 0
-7540 7581 0
-7541 7582 0
-7542 7583 0
-7543 7584 0
-7544 7585 0
-7545 7586 0
-7546 7587 0
-7547 7588 0
-7548 7589 0
-7549 7590 0
-7550 7591 0
-7551 7592 0
-7552 7593 0
-7553 7594 0
-7554 7595 0
-7555 7596 0
-191 -7515 7557 0
-191 -7516 7558 0
-191 -7517 7559 0
-191 -7518 7560 0
-191 -7519 7561 0
-191 -7520 7562 0
-191 -7521 7563 0
-191 -7522 7564 0
-191 -7523 7565 0
-191 -7524 7566 0
-191 -7525 7567 0
-191 -7526 7568 0
-191 -7527 7569 0
-191 -7528 7570 0
-191 -7529 7571 0
-191 -7530 7572 0
-191 -7531 7573 0
-191 -7532 7574 0
-191 -7533 7575 0
-191 -7534 7576 0
-191 -7535 7577 0
-191 -7536 7578 0
-191 -7537 7579 0
-191 -7538 7580 0
-191 -7539 7581 0
-191 -7540 7582 0
-191 -7541 7583 0
-191 -7542 7584 0
-191 -7543 7585 0
-191 -7544 7586 0
-191 -7545 7587 0
-191 -7546 7588 0
-191 -7547 7589 0
-191 -7548 7590 0
-191 -7549 7591 0
-191 -7550 7592 0
-191 -7551 7593 0
-191 -7552 7594 0
-191 -7553 7595 0
-191 -7554 7596 0
-191 -7555 0
-192 7597 0
-7556 7597 0
-7557 7598 0
-7558 7599 0
-7559 7600 0
-7560 7601 0
-7561 7602 0
-7562 7603 0
-7563 7604 0
-7564 7605 0
-7565 7606 0
-7566 7607 0
-7567 7608 0
-7568 7609 0
-7569 7610 0
-7570 7611 0
-7571 7612 0
-7572 7613 0
-7573 7614 0
-7574 7615 0
-7575 7616 0
-7576 7617 0
-7577 7618 0
-7578 7619 0
-7579 7620 0
-7580 7621 0
-7581 7622 0
-7582 7623 0
-7583 7624 0
-7584 7625 0
-7585 7626 0
-7586 7627 0
-7587 7628 0
-7588 7629 0
-7589 7630 0
-7590 7631 0
-7591 7632 0
-7592 7633 0
-7593 7634 0
-7594 7635 0
-7595 7636 0
-7596 7637 0
-192 -7556 7598 0
-192 -7557 7599 0
-192 -7558 7600 0
-192 -7559 7601 0
-192 -7560 7602 0
-192 -7561 7603 0
-192 -7562 7604 0
-192 -7563 7605 0
-192 -7564 7606 0
-192 -7565 7607 0
-192 -7566 7608 0
-192 -7567 7609 0
-192 -7568 7610 0
-192 -7569 7611 0
-192 -7570 7612 0
-192 -7571 7613 0
-192 -7572 7614 0
-192 -7573 7615 0
-192 -7574 7616 0
-192 -7575 7617 0
-192 -7576 7618 0
-192 -7577 7619 0
-192 -7578 7620 0
-192 -7579 7621 0
-192 -7580 7622 0
-192 -7581 7623 0
-192 -7582 7624 0
-192 -7583 7625 0
-192 -7584 7626 0
-192 -7585 7627 0
-192 -7586 7628 0
-192 -7587 7629 0
-192 -7588 7630 0
-192 -7589 7631 0
-192 -7590 7632 0
-192 -7591 7633 0
-192 -7592 7634 0
-192 -7593 7635 0
-192 -7594 7636 0
-192 -7595 7637 0
-192 -7596 0
-193 7638 0
-7597 7638 0
-7598 7639 0
-7599 7640 0
-7600 7641 0
-7601 7642 0
-7602 7643 0
-7603 7644 0
-7604 7645 0
-7605 7646 0
-7606 7647 0
-7607 7648 0
-7608 7649 0
-7609 7650 0
-7610 7651 0
-7611 7652 0
-7612 7653 0
-7613 7654 0
-7614 7655 0
-7615 7656 0
-7616 7657 0
-7617 7658 0
-7618 7659 0
-7619 7660 0
-7620 7661 0
-7621 7662 0
-7622 7663 0
-7623 7664 0
-7624 7665 0
-7625 7666 0
-7626 7667 0
-7627 7668 0
-7628 7669 0
-7629 7670 0
-7630 7671 0
-7631 7672 0
-7632 7673 0
-7633 7674 0
-7634 7675 0
-7635 7676 0
-7636 7677 0
-7637 7678 0
-193 -7597 7639 0
-193 -7598 7640 0
-193 -7599 7641 0
-193 -7600 7642 0
-193 -7601 7643 0
-193 -7602 7644 0
-193 -7603 7645 0
-193 -7604 7646 0
-193 -7605 7647 0
-193 -7606 7648 0
-193 -7607 7649 0
-193 -7608 7650 0
-193 -7609 7651 0
-193 -7610 7652 0
-193 -7611 7653 0
-193 -7612 7654 0
-193 -7613 7655 0
-193 -7614 7656 0
-193 -7615 7657 0
-193 -7616 7658 0
-193 -7617 7659 0
-193 -7618 7660 0
-193 -7619 7661 0
-193 -7620 7662 0
-193 -7621 7663 0
-193 -7622 7664 0
-193 -7623 7665 0
-193 -7624 7666 0
-193 -7625 7667 0
-193 -7626 7668 0
-193 -7627 7669 0
-193 -7628 7670 0
-193 -7629 7671 0
-193 -7630 7672 0
-193 -7631 7673 0
-193 -7632 7674 0
-193 -7633 7675 0
-193 -7634 7676 0
-193 -7635 7677 0
-193 -7636 7678 0
-193 -7637 0
-194 7679 0
-7638 7679 0
-7639 7680 0
-7640 7681 0
-7641 7682 0
-7642 7683 0
-7643 7684 0
-7644 7685 0
-7645 7686 0
-7646 7687 0
-7647 7688 0
-7648 7689 0
-7649 7690 0
-7650 7691 0
-7651 7692 0
-7652 7693 0
-7653 7694 0
-7654 7695 0
-7655 7696 0
-7656 7697 0
-7657 7698 0
-7658 7699 0
-7659 7700 0
-7660 7701 0
-7661 7702 0
-7662 7703 0
-7663 7704 0
-7664 7705 0
-7665 7706 0
-7666 7707 0
-7667 7708 0
-7668 7709 0
-7669 7710 0
-7670 7711 0
-7671 7712 0
-7672 7713 0
-7673 7714 0
-7674 7715 0
-7675 7716 0
-7676 7717 0
-7677 7718 0
-7678 7719 0
-194 -7638 7680 0
-194 -7639 7681 0
-194 -7640 7682 0
-194 -7641 7683 0
-194 -7642 7684 0
-194 -7643 7685 0
-194 -7644 7686 0
-194 -7645 7687 0
-194 -7646 7688 0
-194 -7647 7689 0
-194 -7648 7690 0
-194 -7649 7691 0
-194 -7650 7692 0
-194 -7651 7693 0
-194 -7652 7694 0
-194 -7653 7695 0
-194 -7654 7696 0
-194 -7655 7697 0
-194 -7656 7698 0
-194 -7657 7699 0
-194 -7658 7700 0
-194 -7659 7701 0
-194 -7660 7702 0
-194 -7661 7703 0
-194 -7662 7704 0
-194 -7663 7705 0
-194 -7664 7706 0
-194 -7665 7707 0
-194 -7666 7708 0
-194 -7667 7709 0
-194 -7668 7710 0
-194 -7669 7711 0
-194 -7670 7712 0
-194 -7671 7713 0
-194 -7672 7714 0
-194 -7673 7715 0
-194 -7674 7716 0
-194 -7675 7717 0
-194 -7676 7718 0
-194 -7677 7719 0
-194 -7678 0
-195 7720 0
-7679 7720 0
-7680 7721 0
-7681 7722 0
-7682 7723 0
-7683 7724 0
-7684 7725 0
-7685 7726 0
-7686 7727 0
-7687 7728 0
-7688 7729 0
-7689 7730 0
-7690 7731 0
-7691 7732 0
-7692 7733 0
-7693 7734 0
-7694 7735 0
-7695 7736 0
-7696 7737 0
-7697 7738 0
-7698 7739 0
-7699 7740 0
-7700 7741 0
-7701 7742 0
-7702 7743 0
-7703 7744 0
-7704 7745 0
-7705 7746 0
-7706 7747 0
-7707 7748 0
-7708 7749 0
-7709 7750 0
-7710 7751 0
-7711 7752 0
-7712 7753 0
-7713 7754 0
-7714 7755 0
-7715 7756 0
-7716 7757 0
-7717 7758 0
-7718 7759 0
-7719 7760 0
-195 -7679 7721 0
-195 -7680 7722 0
-195 -7681 7723 0
-195 -7682 7724 0
-195 -7683 7725 0
-195 -7684 7726 0
-195 -7685 7727 0
-195 -7686 7728 0
-195 -7687 7729 0
-195 -7688 7730 0
-195 -7689 7731 0
-195 -7690 7732 0
-195 -7691 7733 0
-195 -7692 7734 0
-195 -7693 7735 0
-195 -7694 7736 0
-195 -7695 7737 0
-195 -7696 7738 0
-195 -7697 7739 0
-195 -7698 7740 0
-195 -7699 7741 0
-195 -7700 7742 0
-195 -7701 7743 0
-195 -7702 7744 0
-195 -7703 7745 0
-195 -7704 7746 0
-195 -7705 7747 0
-195 -7706 7748 0
-195 -7707 7749 0
-195 -7708 7750 0
-195 -7709 7751 0
-195 -7710 7752 0
-195 -7711 7753 0
-195 -7712 7754 0
-195 -7713 7755 0
-195 -7714 7756 0
-195 -7715 7757 0
-195 -7716 7758 0
-195 -7717 7759 0
-195 -7718 7760 0
-195 -7719 0
