c fano-binary-packing-v1
c SAT iff flow value class 5 packs two disjoint joins
p cnf 432 1130
-1 -217 0
-2 -218 0
-3 -219 0
-4 -220 0
-5 -221 0
-6 -222 0
-7 -223 0
-8 -224 0
-9 -225 0
-10 -226 0
-11 0
-227 0
-12 -228 0
-13 -229 0
-14 -230 0
-15 0
-231 0
-16 -232 0
-17 0
-233 0
-18 -234 0
-19 -235 0
-20 -236 0
-21 -237 0
-22 -238 0
-23 -239 0
-24 -240 0
-25 -241 0
-26 -242 0
-27 0
-243 0
-28 -244 0
-29 -245 0
-30 -246 0
-31 -247 0
-32 -248 0
-33 0
-249 0
-34 -250 0
-35 -251 0
-36 -252 0
-37 -253 0
-38 -254 0
-39 -255 0
-40 0
-256 0
-41 -257 0
-42 -258 0
-43 -259 0
-44 -260 0
-45 0
-261 0
-46 -262 0
-47 -263 0
-48 -264 0
-49 -265 0
-50 0
-266 0
-51 -267 0
-52 -268 0
-53 0
-269 0
-54 -270 0
-55 -271 0
-56 -272 0
-57 -273 0
-58 -274 0
-59 -275 0
-60 -276 0
-61 -277 0
-62 -278 0
-63 0
-279 0
-64 -280 0
-65 -281 0
-66 -282 0
-67 0
-283 0
-68 -284 0
-69 -285 0
-70 -286 0
-71 -287 0
-72 -288 0
-73 -289 0
-74 -290 0
-75 -291 0
-76 0
-292 0
-77 -293 0
-78 -294 0
-79 -295 0
-80 -296 0
-81 -297 0
-82 -298 0
-83 -299 0
-84 0
-300 0
-85 -301 0
-86 -302 0
-87 0
-303 0
-88 -304 0
-89 -305 0
-90 -306 0
-91 0
-307 0
-92 -308 0
-93 -309 0
-94 -310 0
-95 0
-311 0
-96 -312 0
-97 0
-313 0
-98 -314 0
-99 0
-315 0
-100 -316 0
-101 -317 0
-102 -318 0
-103 -319 0
-104 -320 0
-105 -321 0
-106 -322 0
-107 -323 0
-108 0
-324 0
-109 -325 0
-110 -326 0
-111 0
-327 0
-112 -328 0
-113 -329 0
-114 -330 0
-115 -331 0
-116 -332 0
-117 0
-333 0
-118 -334 0
-119 0
-335 0
-120 -336 0
-121 -337 0
-122 -338 0
-123 -339 0
-124 -340 0
-125 0
-341 0
-126 -342 0
-127 -343 0
-128 -344 0
-129 -345 0
-130 -346 0
-131 -347 0
-132 -348 0
-133 0
-349 0
-134 -350 0
-135 -351 0
-136 -352 0
-137 -353 0
-138 -354 0
-139 -355 0
-140 -356 0
-141 -357 0
-142 -358 0
-143 -359 0
-144 0
-360 0
-145 -361 0
-146 -362 0
-147 -363 0
-148 -364 0
-149 -365 0
-150 -366 0
-151 -367 0
-152 -368 0
-153 -369 0
-154 -370 0
-155 -371 0
-156 -372 0
-157 -373 0
-158 0
-374 0
-159 -375 0
-160 -376 0
-161 0
-377 0
-162 -378 0
-163 -379 0
-164 0
-380 0
-165 -381 0
-166 -382 0
-167 -383 0
-168 -384 0
-169 -385 0
-170 -386 0
-171 0
-387 0
-172 -388 0
-173 -389 0
-174 -390 0
-175 -391 0
-176 0
-392 0
-177 -393 0
-178 -394 0
-179 -395 0
-180 -396 0
-181 -397 0
-182 -398 0
-183 -399 0
-184 -400 0
-185 -401 0
-186 -402 0
-187 -403 0
-188 -404 0
-189 0
-405 0
-190 -406 0
-191 -407 0
-192 -408 0
-193 -409 0
-194 -410 0
-195 -411 0
-196 -412 0
-197 -413 0
-198 -414 0
-199 -415 0
-200 -416 0
-201 -417 0
-202 -418 0
-203 0
-419 0
-204 -420 0
-205 -421 0
-206 -422 0
-207 -423 0
-208 -424 0
-209 -425 0
-210 -426 0
-211 0
-427 0
-212 -428 0
-213 -429 0
-214 -430 0
-215 0
-431 0
-216 -432 0
1 4 -32 0
1 -4 32 0
-1 4 32 0
-1 -4 -32 0
217 220 -248 0
217 -220 248 0
-217 220 248 0
-217 -220 -248 0
1 2 -35 0
1 -2 35 0
-1 2 35 0
-1 -2 -35 0
217 218 -251 0
217 -218 251 0
-217 218 251 0
-217 -218 -251 0
2 3 -44 0
2 -3 44 0
-2 3 44 0
-2 -3 -44 0
218 219 -260 0
218 -219 260 0
-218 219 260 0
-218 -219 -260 0
3 5 0
-3 -5 0
219 221 0
-219 -221 0
4 5 -39 0
4 -5 39 0
-4 5 39 0
-4 -5 -39 0
220 221 -255 0
220 -221 255 0
-220 221 255 0
-220 -221 -255 0
6 9 -30 0
6 -9 30 0
-6 9 30 0
-6 -9 -30 0
222 225 -246 0
222 -225 246 0
-222 225 246 0
-222 -225 -246 0
6 7 -12 0
6 -7 12 0
-6 7 12 0
-6 -7 -12 0
222 223 -228 0
222 -223 228 0
-222 223 228 0
-222 -223 -228 0
7 8 -37 0
7 -8 37 0
-7 8 37 0
-7 -8 -37 0
223 224 -253 0
223 -224 253 0
-223 224 253 0
-223 -224 -253 0
8 10 -14 0
8 -10 14 0
-8 10 14 0
-8 -10 -14 0
224 226 -230 0
224 -226 230 0
-224 226 230 0
-224 -226 -230 0
9 10 0
-9 -10 0
225 226 0
-225 -226 0
13 71 0
-13 -71 0
229 287 0
-229 -287 0
12 13 0
-12 -13 0
228 229 0
-228 -229 0
14 16 0
-14 -16 0
230 232 0
-230 -232 0
16 28 0
-16 -28 0
232 244 0
-232 -244 0
18 21 0
-18 -21 0
234 237 0
-234 -237 0
18 19 -24 0
18 -19 24 0
-18 19 24 0
-18 -19 -24 0
234 235 -240 0
234 -235 240 0
-234 235 240 0
-234 -235 -240 0
19 20 -46 0
19 -20 46 0
-19 20 46 0
-19 -20 -46 0
235 236 -262 0
235 -236 262 0
-235 236 262 0
-235 -236 -262 0
20 22 -26 0
20 -22 26 0
-20 22 26 0
-20 -22 -26 0
236 238 -242 0
236 -238 242 0
-236 238 242 0
-236 -238 -242 0
21 22 -23 0
21 -22 23 0
-21 22 23 0
-21 -22 -23 0
237 238 -239 0
237 -238 239 0
-237 238 239 0
-237 -238 -239 0
23 25 -48 0
23 -25 48 0
-23 25 48 0
-23 -25 -48 0
239 241 -264 0
239 -241 264 0
-239 241 264 0
-239 -241 -264 0
24 25 0
-24 -25 0
240 241 0
-240 -241 0
26 29 0
-26 -29 0
242 245 0
-242 -245 0
28 29 -31 0
28 -29 31 0
-28 29 31 0
-28 -29 -31 0
244 245 -247 0
244 -245 247 0
-244 245 247 0
-244 -245 -247 0
30 31 -41 0
30 -31 41 0
-30 31 41 0
-30 -31 -41 0
246 247 -257 0
246 -247 257 0
-246 247 257 0
-246 -247 -257 0
32 34 0
-32 -34 0
248 250 0
-248 -250 0
34 36 0
-34 -36 0
250 252 0
-250 -252 0
35 36 0
-35 -36 0
251 252 0
-251 -252 0
37 38 0
-37 -38 0
253 254 0
-253 -254 0
38 101 0
-38 -101 0
254 317 0
-254 -317 0
39 42 0
-39 -42 0
255 258 0
-255 -258 0
41 42 -43 0
41 -42 43 0
-41 42 43 0
-41 -42 -43 0
257 258 -259 0
257 -258 259 0
-257 258 259 0
-257 -258 -259 0
43 51 0
-43 -51 0
259 267 0
-259 -267 0
44 47 0
-44 -47 0
260 263 0
-260 -263 0
46 47 -49 0
46 -47 49 0
-46 47 49 0
-46 -47 -49 0
262 263 -265 0
262 -263 265 0
-262 263 265 0
-262 -263 -265 0
48 49 -52 0
48 -49 52 0
-48 49 52 0
-48 -49 -52 0
264 265 -268 0
264 -265 268 0
-264 265 268 0
-264 -265 -268 0
51 52 0
-51 -52 0
267 268 0
-267 -268 0
56 85 0
-56 -85 0
272 301 0
-272 -301 0
54 88 0
-54 -88 0
270 304 0
-270 -304 0
54 55 -100 0
54 -55 100 0
-54 55 100 0
-54 -55 -100 0
270 271 -316 0
270 -271 316 0
-270 271 316 0
-270 -271 -316 0
55 57 -86 0
55 -57 86 0
-55 57 86 0
-55 -57 -86 0
271 273 -302 0
271 -273 302 0
-271 273 302 0
-271 -273 -302 0
56 57 -94 0
56 -57 94 0
-56 57 94 0
-56 -57 -94 0
272 273 -310 0
272 -273 310 0
-272 273 310 0
-272 -273 -310 0
58 61 -83 0
58 -61 83 0
-58 61 83 0
-58 -61 -83 0
274 277 -299 0
274 -277 299 0
-274 277 299 0
-274 -277 -299 0
58 59 -64 0
58 -59 64 0
-58 59 64 0
-58 -59 -64 0
274 275 -280 0
274 -275 280 0
-274 275 280 0
-274 -275 -280 0
59 60 -90 0
59 -60 90 0
-59 60 90 0
-59 -60 -90 0
275 276 -306 0
275 -276 306 0
-275 276 306 0
-275 -276 -306 0
60 62 -66 0
60 -62 66 0
-60 62 66 0
-60 -62 -66 0
276 278 -282 0
276 -278 282 0
-276 278 282 0
-276 -278 -282 0
61 62 0
-61 -62 0
277 278 0
-277 -278 0
65 92 0
-65 -92 0
281 308 0
-281 -308 0
64 65 0
-64 -65 0
280 281 0
-280 -281 0
66 68 0
-66 -68 0
282 284 0
-282 -284 0
68 69 -81 0
68 -69 81 0
-68 69 81 0
-68 -69 -81 0
284 285 -297 0
284 -285 297 0
-284 285 297 0
-284 -285 -297 0
69 70 -74 0
69 -70 74 0
-69 70 74 0
-69 -70 -74 0
285 286 -290 0
285 -286 290 0
-285 286 290 0
-285 -286 -290 0
70 72 -77 0
70 -72 77 0
-70 72 77 0
-70 -72 -77 0
286 288 -293 0
286 -288 293 0
-286 288 293 0
-286 -288 -293 0
71 72 -73 0
71 -72 73 0
-71 72 73 0
-71 -72 -73 0
287 288 -289 0
287 -288 289 0
-287 288 289 0
-287 -288 -289 0
73 75 -79 0
73 -75 79 0
-73 75 79 0
-73 -75 -79 0
289 291 -295 0
289 -291 295 0
-289 291 295 0
-289 -291 -295 0
74 75 0
-74 -75 0
290 291 0
-290 -291 0
78 103 0
-78 -103 0
294 319 0
-294 -319 0
77 78 -80 0
77 -78 80 0
-77 78 80 0
-77 -78 -80 0
293 294 -296 0
293 -294 296 0
-293 294 296 0
-293 -294 -296 0
79 80 -82 0
79 -80 82 0
-79 80 82 0
-79 -80 -82 0
295 296 -298 0
295 -296 298 0
-295 296 298 0
-295 -296 -298 0
81 82 0
-81 -82 0
297 298 0
-297 -298 0
83 96 0
-83 -96 0
299 312 0
-299 -312 0
85 113 0
-85 -113 0
301 329 0
-301 -329 0
86 89 0
-86 -89 0
302 305 0
-302 -305 0
88 89 0
-88 -89 0
304 305 0
-304 -305 0
90 93 0
-90 -93 0
306 309 0
-306 -309 0
92 93 0
-92 -93 0
308 309 0
-308 -309 0
94 114 0
-94 -114 0
310 330 0
-310 -330 0
96 98 0
-96 -98 0
312 314 0
-312 -314 0
98 105 0
-98 -105 0
314 321 0
-314 -321 0
100 102 0
-100 -102 0
316 318 0
-316 -318 0
101 102 -104 0
101 -102 104 0
-101 102 104 0
-101 -102 -104 0
317 318 -320 0
317 -318 320 0
-317 318 320 0
-317 -318 -320 0
103 104 -106 0
103 -104 106 0
-103 104 106 0
-103 -104 -106 0
319 320 -322 0
319 -320 322 0
-319 320 322 0
-319 -320 -322 0
105 106 -112 0
105 -106 112 0
-105 106 112 0
-105 -106 -112 0
321 322 -328 0
321 -322 328 0
-321 322 328 0
-321 -322 -328 0
107 110 -139 0
107 -110 139 0
-107 110 139 0
-107 -110 -139 0
323 326 -355 0
323 -326 355 0
-323 326 355 0
-323 -326 -355 0
107 142 0
-107 -142 0
323 358 0
-323 -358 0
109 152 0
-109 -152 0
325 368 0
-325 -368 0
109 140 0
-109 -140 0
325 356 0
-325 -356 0
110 148 0
-110 -148 0
326 364 0
-326 -364 0
112 137 0
-112 -137 0
328 353 0
-328 -353 0
113 115 0
-113 -115 0
329 331 0
-329 -331 0
114 115 -116 0
114 -115 116 0
-114 115 116 0
-114 -115 -116 0
330 331 -332 0
330 -331 332 0
-330 331 332 0
-330 -331 -332 0
116 118 -121 0
116 -118 121 0
-116 118 121 0
-116 -118 -121 0
332 334 -337 0
332 -334 337 0
-332 334 337 0
-332 -334 -337 0
118 162 0
-118 -162 0
334 378 0
-334 -378 0
120 146 0
-120 -146 0
336 362 0
-336 -362 0
120 122 0
-120 -122 0
336 338 0
-336 -338 0
121 122 -123 0
121 -122 123 0
-121 122 123 0
-121 -122 -123 0
337 338 -339 0
337 -338 339 0
-337 338 339 0
-337 -338 -339 0
123 124 -135 0
123 -124 135 0
-123 124 135 0
-123 -124 -135 0
339 340 -351 0
339 -340 351 0
-339 340 351 0
-339 -340 -351 0
124 128 0
-124 -128 0
340 344 0
-340 -344 0
126 131 0
-126 -131 0
342 347 0
-342 -347 0
126 127 -154 0
126 -127 154 0
-126 127 154 0
-126 -127 -154 0
342 343 -370 0
342 -343 370 0
-342 343 370 0
-342 -343 -370 0
127 129 0
-127 -129 0
343 345 0
-343 -345 0
128 129 -130 0
128 -129 130 0
-128 129 130 0
-128 -129 -130 0
344 345 -346 0
344 -345 346 0
-344 345 346 0
-344 -345 -346 0
130 132 -156 0
130 -132 156 0
-130 132 156 0
-130 -132 -156 0
346 348 -372 0
346 -348 372 0
-346 348 372 0
-346 -348 -372 0
131 132 -134 0
131 -132 134 0
-131 132 134 0
-131 -132 -134 0
347 348 -350 0
347 -348 350 0
-347 348 350 0
-347 -348 -350 0
134 136 0
-134 -136 0
350 352 0
-350 -352 0
135 136 -138 0
135 -136 138 0
-135 136 138 0
-135 -136 -138 0
351 352 -354 0
351 -352 354 0
-351 352 354 0
-351 -352 -354 0
137 138 -149 0
137 -138 149 0
-137 138 149 0
-137 -138 -149 0
353 354 -365 0
353 -354 365 0
-353 354 365 0
-353 -354 -365 0
139 141 0
-139 -141 0
355 357 0
-355 -357 0
140 141 -143 0
140 -141 143 0
-140 141 143 0
-140 -141 -143 0
356 357 -359 0
356 -357 359 0
-356 357 359 0
-356 -357 -359 0
142 143 -145 0
142 -143 145 0
-142 143 145 0
-142 -143 -145 0
358 359 -361 0
358 -359 361 0
-358 359 361 0
-358 -359 -361 0
145 147 0
-145 -147 0
361 363 0
-361 -363 0
146 147 -209 0
146 -147 209 0
-146 147 209 0
-146 -147 -209 0
362 363 -425 0
362 -363 425 0
-362 363 425 0
-362 -363 -425 0
148 150 -212 0
148 -150 212 0
-148 150 212 0
-148 -150 -212 0
364 366 -428 0
364 -366 428 0
-364 366 428 0
-364 -366 -428 0
149 150 -151 0
149 -150 151 0
-149 150 151 0
-149 -150 -151 0
365 366 -367 0
365 -366 367 0
-365 366 367 0
-365 -366 -367 0
151 153 -159 0
151 -153 159 0
-151 153 159 0
-151 -153 -159 0
367 369 -375 0
367 -369 375 0
-367 369 375 0
-367 -369 -375 0
152 153 -155 0
152 -153 155 0
-152 153 155 0
-152 -153 -155 0
368 369 -371 0
368 -369 371 0
-368 369 371 0
-368 -369 -371 0
154 155 -157 0
154 -155 157 0
-154 155 157 0
-154 -155 -157 0
370 371 -373 0
370 -371 373 0
-370 371 373 0
-370 -371 -373 0
156 157 -160 0
156 -157 160 0
-156 157 160 0
-156 -157 -160 0
372 373 -376 0
372 -373 376 0
-372 373 376 0
-372 -373 -376 0
159 160 0
-159 -160 0
375 376 0
-375 -376 0
165 193 0
-165 -193 0
381 409 0
-381 -409 0
163 196 0
-163 -196 0
379 412 0
-379 -412 0
162 163 -207 0
162 -163 207 0
-162 163 207 0
-162 -163 -207 0
378 379 -423 0
378 -379 423 0
-378 379 423 0
-378 -379 -423 0
166 194 0
-166 -194 0
382 410 0
-382 -410 0
165 166 -202 0
165 -166 202 0
-165 166 202 0
-165 -166 -202 0
381 382 -418 0
381 -382 418 0
-381 382 418 0
-381 -382 -418 0
167 170 -191 0
167 -170 191 0
-167 170 191 0
-167 -170 -191 0
383 386 -407 0
383 -386 407 0
-383 386 407 0
-383 -386 -407 0
167 168 -173 0
167 -168 173 0
-167 168 173 0
-167 -168 -173 0
383 384 -389 0
383 -384 389 0
-383 384 389 0
-383 -384 -389 0
168 169 -198 0
168 -169 198 0
-168 169 198 0
-168 -169 -198 0
384 385 -414 0
384 -385 414 0
-384 385 414 0
-384 -385 -414 0
169 175 0
-169 -175 0
385 391 0
-385 -391 0
170 172 0
-170 -172 0
386 388 0
-386 -388 0
172 174 -200 0
172 -174 200 0
-172 174 200 0
-172 -174 -200 0
388 390 -416 0
388 -390 416 0
-388 390 416 0
-388 -390 -416 0
173 174 0
-173 -174 0
389 390 0
-389 -390 0
175 177 0
-175 -177 0
391 393 0
-391 -393 0
177 178 0
-177 -178 0
393 394 0
-393 -394 0
178 179 -182 0
178 -179 182 0
-178 179 182 0
-178 -179 -182 0
394 395 -398 0
394 -395 398 0
-394 395 398 0
-394 -395 -398 0
179 180 -185 0
179 -180 185 0
-179 180 185 0
-179 -180 -185 0
395 396 -401 0
395 -396 401 0
-395 396 401 0
-395 -396 -401 0
180 181 -210 0
180 -181 210 0
-180 181 210 0
-180 -181 -210 0
396 397 -426 0
396 -397 426 0
-396 397 426 0
-396 -397 -426 0
181 183 -187 0
181 -183 187 0
-181 183 187 0
-181 -183 -187 0
397 399 -403 0
397 -399 403 0
-397 399 403 0
-397 -399 -403 0
182 183 -184 0
182 -183 184 0
-182 183 184 0
-182 -183 -184 0
398 399 -400 0
398 -399 400 0
-398 399 400 0
-398 -399 -400 0
184 186 -213 0
184 -186 213 0
-184 186 213 0
-184 -186 -213 0
400 402 -429 0
400 -402 429 0
-400 402 429 0
-400 -402 -429 0
185 186 -188 0
185 -186 188 0
-185 186 188 0
-185 -186 -188 0
401 402 -404 0
401 -402 404 0
-401 402 404 0
-401 -402 -404 0
187 188 -190 0
187 -188 190 0
-187 188 190 0
-187 -188 -190 0
403 404 -406 0
403 -404 406 0
-403 404 406 0
-403 -404 -406 0
190 192 0
-190 -192 0
406 408 0
-406 -408 0
191 192 -204 0
191 -192 204 0
-191 192 204 0
-191 -192 -204 0
407 408 -420 0
407 -408 420 0
-407 408 420 0
-407 -408 -420 0
193 195 -214 0
193 -195 214 0
-193 195 214 0
-193 -195 -214 0
409 411 -430 0
409 -411 430 0
-409 411 430 0
-409 -411 -430 0
194 195 -197 0
194 -195 197 0
-194 195 197 0
-194 -195 -197 0
410 411 -413 0
410 -411 413 0
-410 411 413 0
-410 -411 -413 0
196 197 -199 0
196 -197 199 0
-196 197 199 0
-196 -197 -199 0
412 413 -415 0
412 -413 415 0
-412 413 415 0
-412 -413 -415 0
198 199 -201 0
198 -199 201 0
-198 199 201 0
-198 -199 -201 0
414 415 -417 0
414 -415 417 0
-414 415 417 0
-414 -415 -417 0
200 201 0
-200 -201 0
416 417 0
-416 -417 0
202 205 0
-202 -205 0
418 421 0
-418 -421 0
204 205 -206 0
204 -205 206 0
-204 205 206 0
-204 -205 -206 0
420 421 -422 0
420 -421 422 0
-420 421 422 0
-420 -421 -422 0
206 208 0
-206 -208 0
422 424 0
-422 -424 0
207 208 0
-207 -208 0
423 424 0
-423 -424 0
209 210 0
-209 -210 0
425 426 0
-425 -426 0
212 213 -216 0
212 -213 216 0
-212 213 216 0
-212 -213 -216 0
428 429 -432 0
428 -429 432 0
-428 429 432 0
-428 -429 -432 0
214 216 0
-214 -216 0
430 432 0
-430 -432 0
