c fano-binary-packing-v1
c SAT iff flow value class 2 packs two disjoint joins
p cnf 432 1151
-1 -217 0
-2 -218 0
-3 -219 0
-4 -220 0
-5 -221 0
-6 -222 0
-7 -223 0
-8 -224 0
-9 -225 0
-10 -226 0
-11 -227 0
-12 0
-228 0
-13 -229 0
-14 -230 0
-15 -231 0
-16 0
-232 0
-17 -233 0
-18 -234 0
-19 -235 0
-20 0
-236 0
-21 0
-237 0
-22 -238 0
-23 -239 0
-24 -240 0
-25 -241 0
-26 -242 0
-27 -243 0
-28 -244 0
-29 -245 0
-30 0
-246 0
-31 -247 0
-32 -248 0
-33 -249 0
-34 0
-250 0
-35 0
-251 0
-36 -252 0
-37 0
-253 0
-38 -254 0
-39 0
-255 0
-40 -256 0
-41 -257 0
-42 -258 0
-43 -259 0
-44 0
-260 0
-45 -261 0
-46 -262 0
-47 -263 0
-48 0
-264 0
-49 -265 0
-50 -266 0
-51 -267 0
-52 -268 0
-53 -269 0
-54 -270 0
-55 -271 0
-56 -272 0
-57 -273 0
-58 -274 0
-59 -275 0
-60 -276 0
-61 0
-277 0
-62 -278 0
-63 -279 0
-64 -280 0
-65 -281 0
-66 -282 0
-67 -283 0
-68 -284 0
-69 -285 0
-70 -286 0
-71 0
-287 0
-72 -288 0
-73 -289 0
-74 -290 0
-75 -291 0
-76 -292 0
-77 -293 0
-78 -294 0
-79 -295 0
-80 -296 0
-81 -297 0
-82 -298 0
-83 -299 0
-84 -300 0
-85 -301 0
-86 -302 0
-87 -303 0
-88 -304 0
-89 -305 0
-90 -306 0
-91 -307 0
-92 -308 0
-93 -309 0
-94 0
-310 0
-95 -311 0
-96 -312 0
-97 -313 0
-98 -314 0
-99 -315 0
-100 -316 0
-101 0
-317 0
-102 -318 0
-103 -319 0
-104 -320 0
-105 -321 0
-106 0
-322 0
-107 -323 0
-108 -324 0
-109 -325 0
-110 -326 0
-111 -327 0
-112 -328 0
-113 -329 0
-114 -330 0
-115 -331 0
-116 -332 0
-117 -333 0
-118 0
-334 0
-119 -335 0
-120 -336 0
-121 -337 0
-122 -338 0
-123 0
-339 0
-124 -340 0
-125 -341 0
-126 -342 0
-127 -343 0
-128 -344 0
-129 -345 0
-130 -346 0
-131 0
-347 0
-132 -348 0
-133 -349 0
-134 -350 0
-135 -351 0
-136 -352 0
-137 -353 0
-138 0
-354 0
-139 0
-355 0
-140 -356 0
-141 -357 0
-142 -358 0
-143 -359 0
-144 -360 0
-145 -361 0
-146 -362 0
-147 0
-363 0
-148 -364 0
-149 -365 0
-150 0
-366 0
-151 -367 0
-152 -368 0
-153 0
-369 0
-154 -370 0
-155 -371 0
-156 -372 0
-157 0
-373 0
-158 -374 0
-159 -375 0
-160 -376 0
-161 -377 0
-162 -378 0
-163 -379 0
-164 -380 0
-165 -381 0
-166 -382 0
-167 -383 0
-168 -384 0
-169 -385 0
-170 -386 0
-171 -387 0
-172 0
-388 0
-173 -389 0
-174 -390 0
-175 -391 0
-176 -392 0
-177 -393 0
-178 -394 0
-179 0
-395 0
-180 -396 0
-181 -397 0
-182 -398 0
-183 -399 0
-184 -400 0
-185 -401 0
-186 -402 0
-187 -403 0
-188 0
-404 0
-189 -405 0
-190 -406 0
-191 -407 0
-192 -408 0
-193 -409 0
-194 0
-410 0
-195 -411 0
-196 -412 0
-197 -413 0
-198 -414 0
-199 0
-415 0
-200 -416 0
-201 -417 0
-202 -418 0
-203 -419 0
-204 -420 0
-205 -421 0
-206 -422 0
-207 -423 0
-208 -424 0
-209 -425 0
-210 -426 0
-211 -427 0
-212 -428 0
-213 -429 0
-214 0
-430 0
-215 -431 0
-216 -432 0
1 4 -32 0
1 -4 32 0
-1 4 32 0
-1 -4 -32 0
217 220 -248 0
217 -220 248 0
-217 220 248 0
-217 -220 -248 0
1 2 0
-1 -2 0
217 218 0
-217 -218 0
2 3 0
-2 -3 0
218 219 0
-218 -219 0
3 5 -33 0
3 -5 33 0
-3 5 33 0
-3 -5 -33 0
219 221 -249 0
219 -221 249 0
-219 221 249 0
-219 -221 -249 0
4 5 0
-4 -5 0
220 221 0
-220 -221 0
6 9 0
-6 -9 0
222 225 0
-222 -225 0
6 7 0
-6 -7 0
222 223 0
-222 -223 0
7 8 0
-7 -8 0
223 224 0
-223 -224 0
8 10 -14 0
8 -10 14 0
-8 10 14 0
-8 -10 -14 0
224 226 -230 0
224 -226 230 0
-224 226 230 0
-224 -226 -230 0
9 10 -11 0
9 -10 11 0
-9 10 11 0
-9 -10 -11 0
225 226 -227 0
225 -226 227 0
-225 226 227 0
-225 -226 -227 0
11 13 0
-11 -13 0
227 229 0
-227 -229 0
13 15 0
-13 -15 0
229 231 0
-229 -231 0
14 15 0
-14 -15 0
230 231 0
-230 -231 0
17 28 0
-17 -28 0
233 244 0
-233 -244 0
17 18 0
-17 -18 0
233 234 0
-233 -234 0
18 19 -24 0
18 -19 24 0
-18 19 24 0
-18 -19 -24 0
234 235 -240 0
234 -235 240 0
-234 235 240 0
-234 -235 -240 0
19 46 0
-19 -46 0
235 262 0
-235 -262 0
22 26 0
-22 -26 0
238 242 0
-238 -242 0
22 23 0
-22 -23 0
238 239 0
-238 -239 0
23 25 0
-23 -25 0
239 241 0
-239 -241 0
24 25 -27 0
24 -25 27 0
-24 25 27 0
-24 -25 -27 0
240 241 -243 0
240 -241 243 0
-240 241 243 0
-240 -241 -243 0
26 27 -29 0
26 -27 29 0
-26 27 29 0
-26 -27 -29 0
242 243 -245 0
242 -243 245 0
-242 243 245 0
-242 -243 -245 0
28 29 -31 0
28 -29 31 0
-28 29 31 0
-28 -29 -31 0
244 245 -247 0
244 -245 247 0
-244 245 247 0
-244 -245 -247 0
31 41 0
-31 -41 0
247 257 0
-247 -257 0
32 50 0
-32 -50 0
248 266 0
-248 -266 0
33 36 0
-33 -36 0
249 252 0
-249 -252 0
36 99 0
-36 -99 0
252 315 0
-252 -315 0
38 97 0
-38 -97 0
254 313 0
-254 -313 0
38 40 0
-38 -40 0
254 256 0
-254 -256 0
40 42 0
-40 -42 0
256 258 0
-256 -258 0
41 42 -43 0
41 -42 43 0
-41 42 43 0
-41 -42 -43 0
257 258 -259 0
257 -258 259 0
-257 258 259 0
-257 -258 -259 0
43 45 -51 0
43 -45 51 0
-43 45 51 0
-43 -45 -51 0
259 261 -267 0
259 -261 267 0
-259 261 267 0
-259 -261 -267 0
45 47 0
-45 -47 0
261 263 0
-261 -263 0
46 47 -49 0
46 -47 49 0
-46 47 49 0
-46 -47 -49 0
262 263 -265 0
262 -263 265 0
-262 263 265 0
-262 -263 -265 0
49 52 0
-49 -52 0
265 268 0
-265 -268 0
50 51 -52 0
50 -51 52 0
-50 51 52 0
-50 -51 -52 0
266 267 -268 0
266 -267 268 0
-266 267 268 0
-266 -267 -268 0
53 56 -85 0
53 -56 85 0
-53 56 85 0
-53 -56 -85 0
269 272 -301 0
269 -272 301 0
-269 272 301 0
-269 -272 -301 0
53 54 -88 0
53 -54 88 0
-53 54 88 0
-53 -54 -88 0
269 270 -304 0
269 -270 304 0
-269 270 304 0
-269 -270 -304 0
54 55 -100 0
54 -55 100 0
-54 55 100 0
-54 -55 -100 0
270 271 -316 0
270 -271 316 0
-270 271 316 0
-270 -271 -316 0
55 57 -86 0
55 -57 86 0
-55 57 86 0
-55 -57 -86 0
271 273 -302 0
271 -273 302 0
-271 273 302 0
-271 -273 -302 0
56 57 0
-56 -57 0
272 273 0
-272 -273 0
58 83 0
-58 -83 0
274 299 0
-274 -299 0
58 59 -64 0
58 -59 64 0
-58 59 64 0
-58 -59 -64 0
274 275 -280 0
274 -275 280 0
-274 275 280 0
-274 -275 -280 0
59 60 -90 0
59 -60 90 0
-59 60 90 0
-59 -60 -90 0
275 276 -306 0
275 -276 306 0
-275 276 306 0
-275 -276 -306 0
60 62 -66 0
60 -62 66 0
-60 62 66 0
-60 -62 -66 0
276 278 -282 0
276 -278 282 0
-276 278 282 0
-276 -278 -282 0
62 63 0
-62 -63 0
278 279 0
-278 -279 0
63 65 -92 0
63 -65 92 0
-63 65 92 0
-63 -65 -92 0
279 281 -308 0
279 -281 308 0
-279 281 308 0
-279 -281 -308 0
64 65 -67 0
64 -65 67 0
-64 65 67 0
-64 -65 -67 0
280 281 -283 0
280 -281 283 0
-280 281 283 0
-280 -281 -283 0
66 67 -68 0
66 -67 68 0
-66 67 68 0
-66 -67 -68 0
282 283 -284 0
282 -283 284 0
-282 283 284 0
-282 -283 -284 0
68 69 -81 0
68 -69 81 0
-68 69 81 0
-68 -69 -81 0
284 285 -297 0
284 -285 297 0
-284 285 297 0
-284 -285 -297 0
69 70 -74 0
69 -70 74 0
-69 70 74 0
-69 -70 -74 0
285 286 -290 0
285 -286 290 0
-285 286 290 0
-285 -286 -290 0
70 72 -77 0
70 -72 77 0
-70 72 77 0
-70 -72 -77 0
286 288 -293 0
286 -288 293 0
-286 288 293 0
-286 -288 -293 0
72 73 0
-72 -73 0
288 289 0
-288 -289 0
73 75 -79 0
73 -75 79 0
-73 75 79 0
-73 -75 -79 0
289 291 -295 0
289 -291 295 0
-289 291 295 0
-289 -291 -295 0
74 75 -76 0
74 -75 76 0
-74 75 76 0
-74 -75 -76 0
290 291 -292 0
290 -291 292 0
-290 291 292 0
-290 -291 -292 0
76 78 -103 0
76 -78 103 0
-76 78 103 0
-76 -78 -103 0
292 294 -319 0
292 -294 319 0
-292 294 319 0
-292 -294 -319 0
77 78 -80 0
77 -78 80 0
-77 78 80 0
-77 -78 -80 0
293 294 -296 0
293 -294 296 0
-293 294 296 0
-293 -294 -296 0
79 80 -82 0
79 -80 82 0
-79 80 82 0
-79 -80 -82 0
295 296 -298 0
295 -296 298 0
-295 296 298 0
-295 -296 -298 0
81 82 -84 0
81 -82 84 0
-81 82 84 0
-81 -82 -84 0
297 298 -300 0
297 -298 300 0
-297 298 300 0
-297 -298 -300 0
83 84 -96 0
83 -84 96 0
-83 84 96 0
-83 -84 -96 0
299 300 -312 0
299 -300 312 0
-299 300 312 0
-299 -300 -312 0
85 87 -113 0
85 -87 113 0
-85 87 113 0
-85 -87 -113 0
301 303 -329 0
301 -303 329 0
-301 303 329 0
-301 -303 -329 0
86 87 -89 0
86 -87 89 0
-86 87 89 0
-86 -87 -89 0
302 303 -305 0
302 -303 305 0
-302 303 305 0
-302 -303 -305 0
88 89 -91 0
88 -89 91 0
-88 89 91 0
-88 -89 -91 0
304 305 -307 0
304 -305 307 0
-304 305 307 0
-304 -305 -307 0
90 91 -93 0
90 -91 93 0
-90 91 93 0
-90 -91 -93 0
306 307 -309 0
306 -307 309 0
-306 307 309 0
-306 -307 -309 0
92 93 -95 0
92 -93 95 0
-92 93 95 0
-92 -93 -95 0
308 309 -311 0
308 -309 311 0
-308 309 311 0
-308 -309 -311 0
95 114 0
-95 -114 0
311 330 0
-311 -330 0
96 98 -144 0
96 -98 144 0
-96 98 144 0
-96 -98 -144 0
312 314 -360 0
312 -314 360 0
-312 314 360 0
-312 -314 -360 0
97 98 -105 0
97 -98 105 0
-97 98 105 0
-97 -98 -105 0
313 314 -321 0
313 -314 321 0
-313 314 321 0
-313 -314 -321 0
99 100 -102 0
99 -100 102 0
-99 100 102 0
-99 -100 -102 0
315 316 -318 0
315 -316 318 0
-315 316 318 0
-315 -316 -318 0
102 104 0
-102 -104 0
318 320 0
-318 -320 0
103 104 0
-103 -104 0
319 320 0
-319 -320 0
105 112 0
-105 -112 0
321 328 0
-321 -328 0
107 110 0
-107 -110 0
323 326 0
-323 -326 0
107 108 -142 0
107 -108 142 0
-107 108 142 0
-107 -108 -142 0
323 324 -358 0
323 -324 358 0
-323 324 358 0
-323 -324 -358 0
108 109 -152 0
108 -109 152 0
-108 109 152 0
-108 -109 -152 0
324 325 -368 0
324 -325 368 0
-324 325 368 0
-324 -325 -368 0
109 111 -140 0
109 -111 140 0
-109 111 140 0
-109 -111 -140 0
325 327 -356 0
325 -327 356 0
-325 327 356 0
-325 -327 -356 0
110 111 -148 0
110 -111 148 0
-110 111 148 0
-110 -111 -148 0
326 327 -364 0
326 -327 364 0
-326 327 364 0
-326 -327 -364 0
112 117 -137 0
112 -117 137 0
-112 117 137 0
-112 -117 -137 0
328 333 -353 0
328 -333 353 0
-328 333 353 0
-328 -333 -353 0
113 115 -119 0
113 -115 119 0
-113 115 119 0
-113 -115 -119 0
329 331 -335 0
329 -331 335 0
-329 331 335 0
-329 -331 -335 0
114 115 -116 0
114 -115 116 0
-114 115 116 0
-114 -115 -116 0
330 331 -332 0
330 -331 332 0
-330 331 332 0
-330 -331 -332 0
116 121 0
-116 -121 0
332 337 0
-332 -337 0
117 162 0
-117 -162 0
333 378 0
-333 -378 0
120 146 -164 0
120 -146 164 0
-120 146 164 0
-120 -146 -164 0
336 362 -380 0
336 -362 380 0
-336 362 380 0
-336 -362 -380 0
119 120 -122 0
119 -120 122 0
-119 120 122 0
-119 -120 -122 0
335 336 -338 0
335 -336 338 0
-335 336 338 0
-335 -336 -338 0
121 122 0
-121 -122 0
337 338 0
-337 -338 0
124 135 0
-124 -135 0
340 351 0
-340 -351 0
124 125 -128 0
124 -125 128 0
-124 125 128 0
-124 -125 -128 0
340 341 -344 0
340 -341 344 0
-340 341 344 0
-340 -341 -344 0
125 126 0
-125 -126 0
341 342 0
-341 -342 0
126 127 -154 0
126 -127 154 0
-126 127 154 0
-126 -127 -154 0
342 343 -370 0
342 -343 370 0
-342 343 370 0
-342 -343 -370 0
127 129 -133 0
127 -129 133 0
-127 129 133 0
-127 -129 -133 0
343 345 -349 0
343 -345 349 0
-343 345 349 0
-343 -345 -349 0
128 129 -130 0
128 -129 130 0
-128 129 130 0
-128 -129 -130 0
344 345 -346 0
344 -345 346 0
-344 345 346 0
-344 -345 -346 0
130 132 -156 0
130 -132 156 0
-130 132 156 0
-130 -132 -156 0
346 348 -372 0
346 -348 372 0
-346 348 372 0
-346 -348 -372 0
132 134 0
-132 -134 0
348 350 0
-348 -350 0
133 134 -136 0
133 -134 136 0
-133 134 136 0
-133 -134 -136 0
349 350 -352 0
349 -350 352 0
-349 350 352 0
-349 -350 -352 0
135 136 0
-135 -136 0
351 352 0
-351 -352 0
137 149 0
-137 -149 0
353 365 0
-353 -365 0
141 158 0
-141 -158 0
357 374 0
-357 -374 0
140 141 -143 0
140 -141 143 0
-140 141 143 0
-140 -141 -143 0
356 357 -359 0
356 -357 359 0
-356 357 359 0
-356 -357 -359 0
142 143 -145 0
142 -143 145 0
-142 143 145 0
-142 -143 -145 0
358 359 -361 0
358 -359 361 0
-358 359 361 0
-358 -359 -361 0
144 145 0
-144 -145 0
360 361 0
-360 -361 0
146 209 0
-146 -209 0
362 425 0
-362 -425 0
148 212 0
-148 -212 0
364 428 0
-364 -428 0
149 151 0
-149 -151 0
365 367 0
-365 -367 0
151 159 0
-151 -159 0
367 375 0
-367 -375 0
152 155 0
-152 -155 0
368 371 0
-368 -371 0
154 155 0
-154 -155 0
370 371 0
-370 -371 0
156 160 0
-156 -160 0
372 376 0
-372 -376 0
158 159 -160 0
158 -159 160 0
-158 159 160 0
-158 -159 -160 0
374 375 -376 0
374 -375 376 0
-374 375 376 0
-374 -375 -376 0
161 165 -193 0
161 -165 193 0
-161 165 193 0
-161 -165 -193 0
377 381 -409 0
377 -381 409 0
-377 381 409 0
-377 -381 -409 0
161 163 -196 0
161 -163 196 0
-161 163 196 0
-161 -163 -196 0
377 379 -412 0
377 -379 412 0
-377 379 412 0
-377 -379 -412 0
162 163 -207 0
162 -163 207 0
-162 163 207 0
-162 -163 -207 0
378 379 -423 0
378 -379 423 0
-378 379 423 0
-378 -379 -423 0
164 166 0
-164 -166 0
380 382 0
-380 -382 0
165 166 -202 0
165 -166 202 0
-165 166 202 0
-165 -166 -202 0
381 382 -418 0
381 -382 418 0
-381 382 418 0
-381 -382 -418 0
167 170 -191 0
167 -170 191 0
-167 170 191 0
-167 -170 -191 0
383 386 -407 0
383 -386 407 0
-383 386 407 0
-383 -386 -407 0
167 168 -173 0
167 -168 173 0
-167 168 173 0
-167 -168 -173 0
383 384 -389 0
383 -384 389 0
-383 384 389 0
-383 -384 -389 0
168 169 -198 0
168 -169 198 0
-168 169 198 0
-168 -169 -198 0
384 385 -414 0
384 -385 414 0
-384 385 414 0
-384 -385 -414 0
169 171 -175 0
169 -171 175 0
-169 171 175 0
-169 -171 -175 0
385 387 -391 0
385 -387 391 0
-385 387 391 0
-385 -387 -391 0
170 171 0
-170 -171 0
386 387 0
-386 -387 0
174 200 0
-174 -200 0
390 416 0
-390 -416 0
173 174 -176 0
173 -174 176 0
-173 174 176 0
-173 -174 -176 0
389 390 -392 0
389 -390 392 0
-389 390 392 0
-389 -390 -392 0
175 176 -177 0
175 -176 177 0
-175 176 177 0
-175 -176 -177 0
391 392 -393 0
391 -392 393 0
-391 392 393 0
-391 -392 -393 0
177 178 -189 0
177 -178 189 0
-177 178 189 0
-177 -178 -189 0
393 394 -405 0
393 -394 405 0
-393 394 405 0
-393 -394 -405 0
178 182 0
-178 -182 0
394 398 0
-394 -398 0
180 185 0
-180 -185 0
396 401 0
-396 -401 0
180 181 -210 0
180 -181 210 0
-180 181 210 0
-180 -181 -210 0
396 397 -426 0
396 -397 426 0
-396 397 426 0
-396 -397 -426 0
181 183 -187 0
181 -183 187 0
-181 183 187 0
-181 -183 -187 0
397 399 -403 0
397 -399 403 0
-397 399 403 0
-397 -399 -403 0
182 183 -184 0
182 -183 184 0
-182 183 184 0
-182 -183 -184 0
398 399 -400 0
398 -399 400 0
-398 399 400 0
-398 -399 -400 0
184 186 -213 0
184 -186 213 0
-184 186 213 0
-184 -186 -213 0
400 402 -429 0
400 -402 429 0
-400 402 429 0
-400 -402 -429 0
185 186 0
-185 -186 0
401 402 0
-401 -402 0
187 190 0
-187 -190 0
403 406 0
-403 -406 0
189 190 -192 0
189 -190 192 0
-189 190 192 0
-189 -190 -192 0
405 406 -408 0
405 -406 408 0
-405 406 408 0
-405 -406 -408 0
191 192 -204 0
191 -192 204 0
-191 192 204 0
-191 -192 -204 0
407 408 -420 0
407 -408 420 0
-407 408 420 0
-407 -408 -420 0
193 195 0
-193 -195 0
409 411 0
-409 -411 0
195 197 0
-195 -197 0
411 413 0
-411 -413 0
196 197 0
-196 -197 0
412 413 0
-412 -413 0
198 201 0
-198 -201 0
414 417 0
-414 -417 0
200 201 -203 0
200 -201 203 0
-200 201 203 0
-200 -201 -203 0
416 417 -419 0
416 -417 419 0
-416 417 419 0
-416 -417 -419 0
202 203 -205 0
202 -203 205 0
-202 203 205 0
-202 -203 -205 0
418 419 -421 0
418 -419 421 0
-418 419 421 0
-418 -419 -421 0
204 205 -206 0
204 -205 206 0
-204 205 206 0
-204 -205 -206 0
420 421 -422 0
420 -421 422 0
-420 421 422 0
-420 -421 -422 0
206 208 -215 0
206 -208 215 0
-206 208 215 0
-206 -208 -215 0
422 424 -431 0
422 -424 431 0
-422 424 431 0
-422 -424 -431 0
207 208 -211 0
207 -208 211 0
-207 208 211 0
-207 -208 -211 0
423 424 -427 0
423 -424 427 0
-423 424 427 0
-423 -424 -427 0
209 210 -211 0
209 -210 211 0
-209 210 211 0
-209 -210 -211 0
425 426 -427 0
425 -426 427 0
-425 426 427 0
-425 -426 -427 0
212 213 -216 0
212 -213 216 0
-212 213 216 0
-212 -213 -216 0
428 429 -432 0
428 -429 432 0
-428 429 432 0
-428 -429 -432 0
215 216 0
-215 -216 0
431 432 0
-431 -432 0
