c fano-binary-packing-v1
c SAT iff flow value class 6 packs two disjoint joins
p cnf 432 1186
-1 0
-217 0
-2 -218 0
-3 0
-219 0
-4 -220 0
-5 -221 0
-6 0
-222 0
-7 -223 0
-8 0
-224 0
-9 -225 0
-10 -226 0
-11 -227 0
-12 -228 0
-13 -229 0
-14 -230 0
-15 -231 0
-16 -232 0
-17 -233 0
-18 -234 0
-19 -235 0
-20 -236 0
-21 -237 0
-22 0
-238 0
-23 -239 0
-24 -240 0
-25 0
-241 0
-26 -242 0
-27 -243 0
-28 -244 0
-29 -245 0
-30 -246 0
-31 0
-247 0
-32 -248 0
-33 -249 0
-34 -250 0
-35 -251 0
-36 -252 0
-37 -253 0
-38 -254 0
-39 -255 0
-40 -256 0
-41 -257 0
-42 -258 0
-43 -259 0
-44 -260 0
-45 -261 0
-46 0
-262 0
-47 -263 0
-48 -264 0
-49 -265 0
-50 -266 0
-51 0
-267 0
-52 -268 0
-53 -269 0
-54 -270 0
-55 -271 0
-56 -272 0
-57 -273 0
-58 0
-274 0
-59 -275 0
-60 0
-276 0
-61 -277 0
-62 -278 0
-63 -279 0
-64 -280 0
-65 -281 0
-66 -282 0
-67 -283 0
-68 -284 0
-69 -285 0
-70 -286 0
-71 -287 0
-72 0
-288 0
-73 -289 0
-74 0
-290 0
-75 -291 0
-76 -292 0
-77 -293 0
-78 0
-294 0
-79 -295 0
-80 -296 0
-81 -297 0
-82 0
-298 0
-83 -299 0
-84 -300 0
-85 -301 0
-86 -302 0
-87 -303 0
-88 -304 0
-89 -305 0
-90 -306 0
-91 -307 0
-92 -308 0
-93 -309 0
-94 -310 0
-95 -311 0
-96 -312 0
-97 -313 0
-98 -314 0
-99 -315 0
-100 0
-316 0
-101 -317 0
-102 -318 0
-103 -319 0
-104 -320 0
-105 -321 0
-106 -322 0
-107 0
-323 0
-108 -324 0
-109 0
-325 0
-110 -326 0
-111 -327 0
-112 -328 0
-113 -329 0
-114 -330 0
-115 -331 0
-116 -332 0
-117 -333 0
-118 -334 0
-119 -335 0
-120 0
-336 0
-121 -337 0
-122 -338 0
-123 -339 0
-124 -340 0
-125 -341 0
-126 -342 0
-127 -343 0
-128 0
-344 0
-129 -345 0
-130 -346 0
-131 -347 0
-132 -348 0
-133 -349 0
-134 0
-350 0
-135 -351 0
-136 -352 0
-137 0
-353 0
-138 -354 0
-139 -355 0
-140 -356 0
-141 -357 0
-142 -358 0
-143 -359 0
-144 -360 0
-145 -361 0
-146 -362 0
-147 -363 0
-148 -364 0
-149 -365 0
-150 -366 0
-151 0
-367 0
-152 -368 0
-153 -369 0
-154 -370 0
-155 -371 0
-156 -372 0
-157 -373 0
-158 -374 0
-159 -375 0
-160 -376 0
-161 -377 0
-162 -378 0
-163 0
-379 0
-164 -380 0
-165 -381 0
-166 -382 0
-167 -383 0
-168 -384 0
-169 -385 0
-170 -386 0
-171 -387 0
-172 -388 0
-173 -389 0
-174 0
-390 0
-175 -391 0
-176 -392 0
-177 -393 0
-178 -394 0
-179 -395 0
-180 -396 0
-181 -397 0
-182 -398 0
-183 -399 0
-184 -400 0
-185 -401 0
-186 -402 0
-187 -403 0
-188 -404 0
-189 -405 0
-190 -406 0
-191 -407 0
-192 -408 0
-193 -409 0
-194 -410 0
-195 -411 0
-196 -412 0
-197 -413 0
-198 -414 0
-199 -415 0
-200 -416 0
-201 -417 0
-202 -418 0
-203 -419 0
-204 -420 0
-205 0
-421 0
-206 -422 0
-207 -423 0
-208 -424 0
-209 -425 0
-210 -426 0
-211 -427 0
-212 -428 0
-213 -429 0
-214 -430 0
-215 -431 0
-216 -432 0
4 32 0
-4 -32 0
220 248 0
-220 -248 0
2 35 0
-2 -35 0
218 251 0
-218 -251 0
2 44 0
-2 -44 0
218 260 0
-218 -260 0
5 33 0
-5 -33 0
221 249 0
-221 -249 0
4 5 -39 0
4 -5 39 0
-4 5 39 0
-4 -5 -39 0
220 221 -255 0
220 -221 255 0
-220 221 255 0
-220 -221 -255 0
9 30 0
-9 -30 0
225 246 0
-225 -246 0
7 12 0
-7 -12 0
223 228 0
-223 -228 0
7 37 0
-7 -37 0
223 253 0
-223 -253 0
10 14 0
-10 -14 0
226 230 0
-226 -230 0
9 10 -11 0
9 -10 11 0
-9 10 11 0
-9 -10 -11 0
225 226 -227 0
225 -226 227 0
-225 226 227 0
-225 -226 -227 0
11 13 -71 0
11 -13 71 0
-11 13 71 0
-11 -13 -71 0
227 229 -287 0
227 -229 287 0
-227 229 287 0
-227 -229 -287 0
12 13 -15 0
12 -13 15 0
-12 13 15 0
-12 -13 -15 0
228 229 -231 0
228 -229 231 0
-228 229 231 0
-228 -229 -231 0
14 15 -16 0
14 -15 16 0
-14 15 16 0
-14 -15 -16 0
230 231 -232 0
230 -231 232 0
-230 231 232 0
-230 -231 -232 0
16 17 -28 0
16 -17 28 0
-16 17 28 0
-16 -17 -28 0
232 233 -244 0
232 -233 244 0
-232 233 244 0
-232 -233 -244 0
17 18 -21 0
17 -18 21 0
-17 18 21 0
-17 -18 -21 0
233 234 -237 0
233 -234 237 0
-233 234 237 0
-233 -234 -237 0
18 19 -24 0
18 -19 24 0
-18 19 24 0
-18 -19 -24 0
234 235 -240 0
234 -235 240 0
-234 235 240 0
-234 -235 -240 0
19 20 0
-19 -20 0
235 236 0
-235 -236 0
20 26 0
-20 -26 0
236 242 0
-236 -242 0
21 23 0
-21 -23 0
237 239 0
-237 -239 0
23 48 0
-23 -48 0
239 264 0
-239 -264 0
24 27 0
-24 -27 0
240 243 0
-240 -243 0
26 27 -29 0
26 -27 29 0
-26 27 29 0
-26 -27 -29 0
242 243 -245 0
242 -243 245 0
-242 243 245 0
-242 -243 -245 0
28 29 0
-28 -29 0
244 245 0
-244 -245 0
30 41 0
-30 -41 0
246 257 0
-246 -257 0
32 34 -50 0
32 -34 50 0
-32 34 50 0
-32 -34 -50 0
248 250 -266 0
248 -250 266 0
-248 250 266 0
-248 -250 -266 0
33 34 -36 0
33 -34 36 0
-33 34 36 0
-33 -34 -36 0
249 250 -252 0
249 -250 252 0
-249 250 252 0
-249 -250 -252 0
35 36 -99 0
35 -36 99 0
-35 36 99 0
-35 -36 -99 0
251 252 -315 0
251 -252 315 0
-251 252 315 0
-251 -252 -315 0
37 38 -97 0
37 -38 97 0
-37 38 97 0
-37 -38 -97 0
253 254 -313 0
253 -254 313 0
-253 254 313 0
-253 -254 -313 0
38 40 -101 0
38 -40 101 0
-38 40 101 0
-38 -40 -101 0
254 256 -317 0
254 -256 317 0
-254 256 317 0
-254 -256 -317 0
39 40 -42 0
39 -40 42 0
-39 40 42 0
-39 -40 -42 0
255 256 -258 0
255 -256 258 0
-255 256 258 0
-255 -256 -258 0
41 42 -43 0
41 -42 43 0
-41 42 43 0
-41 -42 -43 0
257 258 -259 0
257 -258 259 0
-257 258 259 0
-257 -258 -259 0
43 45 0
-43 -45 0
259 261 0
-259 -261 0
44 45 -47 0
44 -45 47 0
-44 45 47 0
-44 -45 -47 0
260 261 -263 0
260 -261 263 0
-260 261 263 0
-260 -261 -263 0
47 49 0
-47 -49 0
263 265 0
-263 -265 0
48 49 -52 0
48 -49 52 0
-48 49 52 0
-48 -49 -52 0
264 265 -268 0
264 -265 268 0
-264 265 268 0
-264 -265 -268 0
50 52 0
-50 -52 0
266 268 0
-266 -268 0
53 56 -85 0
53 -56 85 0
-53 56 85 0
-53 -56 -85 0
269 272 -301 0
269 -272 301 0
-269 272 301 0
-269 -272 -301 0
53 54 -88 0
53 -54 88 0
-53 54 88 0
-53 -54 -88 0
269 270 -304 0
269 -270 304 0
-269 270 304 0
-269 -270 -304 0
54 55 0
-54 -55 0
270 271 0
-270 -271 0
55 57 -86 0
55 -57 86 0
-55 57 86 0
-55 -57 -86 0
271 273 -302 0
271 -273 302 0
-271 273 302 0
-271 -273 -302 0
56 57 -94 0
56 -57 94 0
-56 57 94 0
-56 -57 -94 0
272 273 -310 0
272 -273 310 0
-272 273 310 0
-272 -273 -310 0
61 83 0
-61 -83 0
277 299 0
-277 -299 0
59 64 0
-59 -64 0
275 280 0
-275 -280 0
59 90 0
-59 -90 0
275 306 0
-275 -306 0
62 66 0
-62 -66 0
278 282 0
-278 -282 0
61 62 -63 0
61 -62 63 0
-61 62 63 0
-61 -62 -63 0
277 278 -279 0
277 -278 279 0
-277 278 279 0
-277 -278 -279 0
63 65 -92 0
63 -65 92 0
-63 65 92 0
-63 -65 -92 0
279 281 -308 0
279 -281 308 0
-279 281 308 0
-279 -281 -308 0
64 65 -67 0
64 -65 67 0
-64 65 67 0
-64 -65 -67 0
280 281 -283 0
280 -281 283 0
-280 281 283 0
-280 -281 -283 0
66 67 -68 0
66 -67 68 0
-66 67 68 0
-66 -67 -68 0
282 283 -284 0
282 -283 284 0
-282 283 284 0
-282 -283 -284 0
68 69 -81 0
68 -69 81 0
-68 69 81 0
-68 -69 -81 0
284 285 -297 0
284 -285 297 0
-284 285 297 0
-284 -285 -297 0
69 70 0
-69 -70 0
285 286 0
-285 -286 0
70 77 0
-70 -77 0
286 293 0
-286 -293 0
71 73 0
-71 -73 0
287 289 0
-287 -289 0
73 75 -79 0
73 -75 79 0
-73 75 79 0
-73 -75 -79 0
289 291 -295 0
289 -291 295 0
-289 291 295 0
-289 -291 -295 0
75 76 0
-75 -76 0
291 292 0
-291 -292 0
76 103 0
-76 -103 0
292 319 0
-292 -319 0
77 80 0
-77 -80 0
293 296 0
-293 -296 0
79 80 0
-79 -80 0
295 296 0
-295 -296 0
81 84 0
-81 -84 0
297 300 0
-297 -300 0
83 84 -96 0
83 -84 96 0
-83 84 96 0
-83 -84 -96 0
299 300 -312 0
299 -300 312 0
-299 300 312 0
-299 -300 -312 0
85 87 -113 0
85 -87 113 0
-85 87 113 0
-85 -87 -113 0
301 303 -329 0
301 -303 329 0
-301 303 329 0
-301 -303 -329 0
86 87 -89 0
86 -87 89 0
-86 87 89 0
-86 -87 -89 0
302 303 -305 0
302 -303 305 0
-302 303 305 0
-302 -303 -305 0
88 89 -91 0
88 -89 91 0
-88 89 91 0
-88 -89 -91 0
304 305 -307 0
304 -305 307 0
-304 305 307 0
-304 -305 -307 0
90 91 -93 0
90 -91 93 0
-90 91 93 0
-90 -91 -93 0
306 307 -309 0
306 -307 309 0
-306 307 309 0
-306 -307 -309 0
92 93 -95 0
92 -93 95 0
-92 93 95 0
-92 -93 -95 0
308 309 -311 0
308 -309 311 0
-308 309 311 0
-308 -309 -311 0
94 95 -114 0
94 -95 114 0
-94 95 114 0
-94 -95 -114 0
310 311 -330 0
310 -311 330 0
-310 311 330 0
-310 -311 -330 0
96 98 -144 0
96 -98 144 0
-96 98 144 0
-96 -98 -144 0
312 314 -360 0
312 -314 360 0
-312 314 360 0
-312 -314 -360 0
97 98 -105 0
97 -98 105 0
-97 98 105 0
-97 -98 -105 0
313 314 -321 0
313 -314 321 0
-313 314 321 0
-313 -314 -321 0
99 102 0
-99 -102 0
315 318 0
-315 -318 0
101 102 -104 0
101 -102 104 0
-101 102 104 0
-101 -102 -104 0
317 318 -320 0
317 -318 320 0
-317 318 320 0
-317 -318 -320 0
103 104 -106 0
103 -104 106 0
-103 104 106 0
-103 -104 -106 0
319 320 -322 0
319 -320 322 0
-319 320 322 0
-319 -320 -322 0
105 106 -112 0
105 -106 112 0
-105 106 112 0
-105 -106 -112 0
321 322 -328 0
321 -322 328 0
-321 322 328 0
-321 -322 -328 0
110 139 0
-110 -139 0
326 355 0
-326 -355 0
108 142 0
-108 -142 0
324 358 0
-324 -358 0
108 152 0
-108 -152 0
324 368 0
-324 -368 0
111 140 0
-111 -140 0
327 356 0
-327 -356 0
110 111 -148 0
110 -111 148 0
-110 111 148 0
-110 -111 -148 0
326 327 -364 0
326 -327 364 0
-326 327 364 0
-326 -327 -364 0
112 117 0
-112 -117 0
328 333 0
-328 -333 0
113 115 -119 0
113 -115 119 0
-113 115 119 0
-113 -115 -119 0
329 331 -335 0
329 -331 335 0
-329 331 335 0
-329 -331 -335 0
114 115 -116 0
114 -115 116 0
-114 115 116 0
-114 -115 -116 0
330 331 -332 0
330 -331 332 0
-330 331 332 0
-330 -331 -332 0
116 118 -121 0
116 -118 121 0
-116 118 121 0
-116 -118 -121 0
332 334 -337 0
332 -334 337 0
-332 334 337 0
-332 -334 -337 0
117 118 -162 0
117 -118 162 0
-117 118 162 0
-117 -118 -162 0
333 334 -378 0
333 -334 378 0
-333 334 378 0
-333 -334 -378 0
146 164 0
-146 -164 0
362 380 0
-362 -380 0
119 122 0
-119 -122 0
335 338 0
-335 -338 0
121 122 -123 0
121 -122 123 0
-121 122 123 0
-121 -122 -123 0
337 338 -339 0
337 -338 339 0
-337 338 339 0
-337 -338 -339 0
123 124 -135 0
123 -124 135 0
-123 124 135 0
-123 -124 -135 0
339 340 -351 0
339 -340 351 0
-339 340 351 0
-339 -340 -351 0
124 125 0
-124 -125 0
340 341 0
-340 -341 0
125 126 -131 0
125 -126 131 0
-125 126 131 0
-125 -126 -131 0
341 342 -347 0
341 -342 347 0
-341 342 347 0
-341 -342 -347 0
126 127 -154 0
126 -127 154 0
-126 127 154 0
-126 -127 -154 0
342 343 -370 0
342 -343 370 0
-342 343 370 0
-342 -343 -370 0
127 129 -133 0
127 -129 133 0
-127 129 133 0
-127 -129 -133 0
343 345 -349 0
343 -345 349 0
-343 345 349 0
-343 -345 -349 0
129 130 0
-129 -130 0
345 346 0
-345 -346 0
130 132 -156 0
130 -132 156 0
-130 132 156 0
-130 -132 -156 0
346 348 -372 0
346 -348 372 0
-346 348 372 0
-346 -348 -372 0
131 132 0
-131 -132 0
347 348 0
-347 -348 0
133 136 0
-133 -136 0
349 352 0
-349 -352 0
135 136 -138 0
135 -136 138 0
-135 136 138 0
-135 -136 -138 0
351 352 -354 0
351 -352 354 0
-351 352 354 0
-351 -352 -354 0
138 149 0
-138 -149 0
354 365 0
-354 -365 0
139 141 -158 0
139 -141 158 0
-139 141 158 0
-139 -141 -158 0
355 357 -374 0
355 -357 374 0
-355 357 374 0
-355 -357 -374 0
140 141 -143 0
140 -141 143 0
-140 141 143 0
-140 -141 -143 0
356 357 -359 0
356 -357 359 0
-356 357 359 0
-356 -357 -359 0
142 143 -145 0
142 -143 145 0
-142 143 145 0
-142 -143 -145 0
358 359 -361 0
358 -359 361 0
-358 359 361 0
-358 -359 -361 0
144 145 -147 0
144 -145 147 0
-144 145 147 0
-144 -145 -147 0
360 361 -363 0
360 -361 363 0
-360 361 363 0
-360 -361 -363 0
146 147 -209 0
146 -147 209 0
-146 147 209 0
-146 -147 -209 0
362 363 -425 0
362 -363 425 0
-362 363 425 0
-362 -363 -425 0
148 150 -212 0
148 -150 212 0
-148 150 212 0
-148 -150 -212 0
364 366 -428 0
364 -366 428 0
-364 366 428 0
-364 -366 -428 0
149 150 0
-149 -150 0
365 366 0
-365 -366 0
153 159 0
-153 -159 0
369 375 0
-369 -375 0
152 153 -155 0
152 -153 155 0
-152 153 155 0
-152 -153 -155 0
368 369 -371 0
368 -369 371 0
-368 369 371 0
-368 -369 -371 0
154 155 -157 0
154 -155 157 0
-154 155 157 0
-154 -155 -157 0
370 371 -373 0
370 -371 373 0
-370 371 373 0
-370 -371 -373 0
156 157 -160 0
156 -157 160 0
-156 157 160 0
-156 -157 -160 0
372 373 -376 0
372 -373 376 0
-372 373 376 0
-372 -373 -376 0
158 159 -160 0
158 -159 160 0
-158 159 160 0
-158 -159 -160 0
374 375 -376 0
374 -375 376 0
-374 375 376 0
-374 -375 -376 0
161 165 -193 0
161 -165 193 0
-161 165 193 0
-161 -165 -193 0
377 381 -409 0
377 -381 409 0
-377 381 409 0
-377 -381 -409 0
161 196 0
-161 -196 0
377 412 0
-377 -412 0
162 207 0
-162 -207 0
378 423 0
-378 -423 0
164 166 -194 0
164 -166 194 0
-164 166 194 0
-164 -166 -194 0
380 382 -410 0
380 -382 410 0
-380 382 410 0
-380 -382 -410 0
165 166 -202 0
165 -166 202 0
-165 166 202 0
-165 -166 -202 0
381 382 -418 0
381 -382 418 0
-381 382 418 0
-381 -382 -418 0
167 170 -191 0
167 -170 191 0
-167 170 191 0
-167 -170 -191 0
383 386 -407 0
383 -386 407 0
-383 386 407 0
-383 -386 -407 0
167 168 -173 0
167 -168 173 0
-167 168 173 0
-167 -168 -173 0
383 384 -389 0
383 -384 389 0
-383 384 389 0
-383 -384 -389 0
168 169 -198 0
168 -169 198 0
-168 169 198 0
-168 -169 -198 0
384 385 -414 0
384 -385 414 0
-384 385 414 0
-384 -385 -414 0
169 171 -175 0
169 -171 175 0
-169 171 175 0
-169 -171 -175 0
385 387 -391 0
385 -387 391 0
-385 387 391 0
-385 -387 -391 0
170 171 -172 0
170 -171 172 0
-170 171 172 0
-170 -171 -172 0
386 387 -388 0
386 -387 388 0
-386 387 388 0
-386 -387 -388 0
172 200 0
-172 -200 0
388 416 0
-388 -416 0
173 176 0
-173 -176 0
389 392 0
-389 -392 0
175 176 -177 0
175 -176 177 0
-175 176 177 0
-175 -176 -177 0
391 392 -393 0
391 -392 393 0
-391 392 393 0
-391 -392 -393 0
177 178 -189 0
177 -178 189 0
-177 178 189 0
-177 -178 -189 0
393 394 -405 0
393 -394 405 0
-393 394 405 0
-393 -394 -405 0
178 179 -182 0
178 -179 182 0
-178 179 182 0
-178 -179 -182 0
394 395 -398 0
394 -395 398 0
-394 395 398 0
-394 -395 -398 0
179 180 -185 0
179 -180 185 0
-179 180 185 0
-179 -180 -185 0
395 396 -401 0
395 -396 401 0
-395 396 401 0
-395 -396 -401 0
180 181 -210 0
180 -181 210 0
-180 181 210 0
-180 -181 -210 0
396 397 -426 0
396 -397 426 0
-396 397 426 0
-396 -397 -426 0
181 183 -187 0
181 -183 187 0
-181 183 187 0
-181 -183 -187 0
397 399 -403 0
397 -399 403 0
-397 399 403 0
-397 -399 -403 0
182 183 -184 0
182 -183 184 0
-182 183 184 0
-182 -183 -184 0
398 399 -400 0
398 -399 400 0
-398 399 400 0
-398 -399 -400 0
184 186 -213 0
184 -186 213 0
-184 186 213 0
-184 -186 -213 0
400 402 -429 0
400 -402 429 0
-400 402 429 0
-400 -402 -429 0
185 186 -188 0
185 -186 188 0
-185 186 188 0
-185 -186 -188 0
401 402 -404 0
401 -402 404 0
-401 402 404 0
-401 -402 -404 0
187 188 -190 0
187 -188 190 0
-187 188 190 0
-187 -188 -190 0
403 404 -406 0
403 -404 406 0
-403 404 406 0
-403 -404 -406 0
189 190 -192 0
189 -190 192 0
-189 190 192 0
-189 -190 -192 0
405 406 -408 0
405 -406 408 0
-405 406 408 0
-405 -406 -408 0
191 192 -204 0
191 -192 204 0
-191 192 204 0
-191 -192 -204 0
407 408 -420 0
407 -408 420 0
-407 408 420 0
-407 -408 -420 0
193 195 -214 0
193 -195 214 0
-193 195 214 0
-193 -195 -214 0
409 411 -430 0
409 -411 430 0
-409 411 430 0
-409 -411 -430 0
194 195 -197 0
194 -195 197 0
-194 195 197 0
-194 -195 -197 0
410 411 -413 0
410 -411 413 0
-410 411 413 0
-410 -411 -413 0
196 197 -199 0
196 -197 199 0
-196 197 199 0
-196 -197 -199 0
412 413 -415 0
412 -413 415 0
-412 413 415 0
-412 -413 -415 0
198 199 -201 0
198 -199 201 0
-198 199 201 0
-198 -199 -201 0
414 415 -417 0
414 -415 417 0
-414 415 417 0
-414 -415 -417 0
200 201 -203 0
200 -201 203 0
-200 201 203 0
-200 -201 -203 0
416 417 -419 0
416 -417 419 0
-416 417 419 0
-416 -417 -419 0
202 203 0
-202 -203 0
418 419 0
-418 -419 0
204 206 0
-204 -206 0
420 422 0
-420 -422 0
206 208 -215 0
206 -208 215 0
-206 208 215 0
-206 -208 -215 0
422 424 -431 0
422 -424 431 0
-422 424 431 0
-422 -424 -431 0
207 208 -211 0
207 -208 211 0
-207 208 211 0
-207 -208 -211 0
423 424 -427 0
423 -424 427 0
-423 424 427 0
-423 -424 -427 0
209 210 -211 0
209 -210 211 0
-209 210 211 0
-209 -210 -211 0
425 426 -427 0
425 -426 427 0
-425 426 427 0
-425 -426 -427 0
212 213 -216 0
212 -213 216 0
-212 213 216 0
-212 -213 -216 0
428 429 -432 0
428 -429 432 0
-428 429 432 0
-428 -429 -432 0
214 215 -216 0
214 -215 216 0
-214 215 216 0
-214 -215 -216 0
430 431 -432 0
430 -431 432 0
-430 431 432 0
-430 -431 -432 0
