c fano-binary-packing-v1
c SAT iff flow value class 1 packs two disjoint joins
p cnf 432 1137
-1 -217 0
-2 -218 0
-3 -219 0
-4 0
-220 0
-5 -221 0
-6 -222 0
-7 -223 0
-8 -224 0
-9 -225 0
-10 0
-226 0
-11 -227 0
-12 -228 0
-13 -229 0
-14 -230 0
-15 -231 0
-16 -232 0
-17 -233 0
-18 -234 0
-19 -235 0
-20 -236 0
-21 -237 0
-22 -238 0
-23 -239 0
-24 -240 0
-25 -241 0
-26 -242 0
-27 -243 0
-28 -244 0
-29 0
-245 0
-30 -246 0
-31 -247 0
-32 -248 0
-33 -249 0
-34 -250 0
-35 -251 0
-36 -252 0
-37 -253 0
-38 -254 0
-39 -255 0
-40 -256 0
-41 -257 0
-42 -258 0
-43 -259 0
-44 -260 0
-45 -261 0
-46 -262 0
-47 -263 0
-48 -264 0
-49 0
-265 0
-50 -266 0
-51 -267 0
-52 -268 0
-53 -269 0
-54 0
-270 0
-55 -271 0
-56 0
-272 0
-57 -273 0
-58 -274 0
-59 -275 0
-60 -276 0
-61 -277 0
-62 -278 0
-63 -279 0
-64 0
-280 0
-65 -281 0
-66 0
-282 0
-67 -283 0
-68 -284 0
-69 -285 0
-70 0
-286 0
-71 -287 0
-72 -288 0
-73 -289 0
-74 -290 0
-75 -291 0
-76 -292 0
-77 -293 0
-78 -294 0
-79 -295 0
-80 0
-296 0
-81 -297 0
-82 -298 0
-83 -299 0
-84 -300 0
-85 -301 0
-86 -302 0
-87 -303 0
-88 -304 0
-89 0
-305 0
-90 0
-306 0
-91 -307 0
-92 0
-308 0
-93 -309 0
-94 -310 0
-95 -311 0
-96 0
-312 0
-97 -313 0
-98 -314 0
-99 -315 0
-100 -316 0
-101 -317 0
-102 -318 0
-103 -319 0
-104 0
-320 0
-105 0
-321 0
-106 -322 0
-107 -323 0
-108 -324 0
-109 -325 0
-110 -326 0
-111 -327 0
-112 -328 0
-113 0
-329 0
-114 -330 0
-115 -331 0
-116 -332 0
-117 -333 0
-118 -334 0
-119 -335 0
-120 -336 0
-121 0
-337 0
-122 -338 0
-123 -339 0
-124 -340 0
-125 -341 0
-126 -342 0
-127 -343 0
-128 -344 0
-129 0
-345 0
-130 -346 0
-131 -347 0
-132 -348 0
-133 -349 0
-134 -350 0
-135 0
-351 0
-136 -352 0
-137 -353 0
-138 -354 0
-139 -355 0
-140 -356 0
-141 -357 0
-142 -358 0
-143 -359 0
-144 -360 0
-145 -361 0
-146 -362 0
-147 -363 0
-148 0
-364 0
-149 -365 0
-150 -366 0
-151 -367 0
-152 -368 0
-153 -369 0
-154 -370 0
-155 0
-371 0
-156 -372 0
-157 -373 0
-158 -374 0
-159 -375 0
-160 0
-376 0
-161 -377 0
-162 -378 0
-163 -379 0
-164 -380 0
-165 -381 0
-166 -382 0
-167 -383 0
-168 -384 0
-169 -385 0
-170 -386 0
-171 -387 0
-172 -388 0
-173 -389 0
-174 -390 0
-175 0
-391 0
-176 -392 0
-177 -393 0
-178 0
-394 0
-179 -395 0
-180 -396 0
-181 -397 0
-182 -398 0
-183 -399 0
-184 -400 0
-185 0
-401 0
-186 -402 0
-187 -403 0
-188 -404 0
-189 -405 0
-190 0
-406 0
-191 -407 0
-192 -408 0
-193 0
-409 0
-194 -410 0
-195 -411 0
-196 -412 0
-197 0
-413 0
-198 -414 0
-199 -415 0
-200 -416 0
-201 0
-417 0
-202 -418 0
-203 -419 0
-204 -420 0
-205 -421 0
-206 0
-422 0
-207 0
-423 0
-208 -424 0
-209 0
-425 0
-210 -426 0
-211 -427 0
-212 -428 0
-213 -429 0
-214 -430 0
-215 -431 0
-216 -432 0
1 32 0
-1 -32 0
217 248 0
-217 -248 0
1 2 -35 0
1 -2 35 0
-1 2 35 0
-1 -2 -35 0
217 218 -251 0
217 -218 251 0
-217 218 251 0
-217 -218 -251 0
2 3 -44 0
2 -3 44 0
-2 3 44 0
-2 -3 -44 0
218 219 -260 0
218 -219 260 0
-218 219 260 0
-218 -219 -260 0
3 5 -33 0
3 -5 33 0
-3 5 33 0
-3 -5 -33 0
219 221 -249 0
219 -221 249 0
-219 221 249 0
-219 -221 -249 0
5 39 0
-5 -39 0
221 255 0
-221 -255 0
6 9 -30 0
6 -9 30 0
-6 9 30 0
-6 -9 -30 0
222 225 -246 0
222 -225 246 0
-222 225 246 0
-222 -225 -246 0
6 7 -12 0
6 -7 12 0
-6 7 12 0
-6 -7 -12 0
222 223 -228 0
222 -223 228 0
-222 223 228 0
-222 -223 -228 0
7 8 -37 0
7 -8 37 0
-7 8 37 0
-7 -8 -37 0
223 224 -253 0
223 -224 253 0
-223 224 253 0
-223 -224 -253 0
8 14 0
-8 -14 0
224 230 0
-224 -230 0
9 11 0
-9 -11 0
225 227 0
-225 -227 0
11 13 -71 0
11 -13 71 0
-11 13 71 0
-11 -13 -71 0
227 229 -287 0
227 -229 287 0
-227 229 287 0
-227 -229 -287 0
12 13 -15 0
12 -13 15 0
-12 13 15 0
-12 -13 -15 0
228 229 -231 0
228 -229 231 0
-228 229 231 0
-228 -229 -231 0
14 15 -16 0
14 -15 16 0
-14 15 16 0
-14 -15 -16 0
230 231 -232 0
230 -231 232 0
-230 231 232 0
-230 -231 -232 0
16 17 -28 0
16 -17 28 0
-16 17 28 0
-16 -17 -28 0
232 233 -244 0
232 -233 244 0
-232 233 244 0
-232 -233 -244 0
17 18 -21 0
17 -18 21 0
-17 18 21 0
-17 -18 -21 0
233 234 -237 0
233 -234 237 0
-233 234 237 0
-233 -234 -237 0
18 19 -24 0
18 -19 24 0
-18 19 24 0
-18 -19 -24 0
234 235 -240 0
234 -235 240 0
-234 235 240 0
-234 -235 -240 0
19 20 -46 0
19 -20 46 0
-19 20 46 0
-19 -20 -46 0
235 236 -262 0
235 -236 262 0
-235 236 262 0
-235 -236 -262 0
20 22 -26 0
20 -22 26 0
-20 22 26 0
-20 -22 -26 0
236 238 -242 0
236 -238 242 0
-236 238 242 0
-236 -238 -242 0
21 22 -23 0
21 -22 23 0
-21 22 23 0
-21 -22 -23 0
237 238 -239 0
237 -238 239 0
-237 238 239 0
-237 -238 -239 0
23 25 -48 0
23 -25 48 0
-23 25 48 0
-23 -25 -48 0
239 241 -264 0
239 -241 264 0
-239 241 264 0
-239 -241 -264 0
24 25 -27 0
24 -25 27 0
-24 25 27 0
-24 -25 -27 0
240 241 -243 0
240 -241 243 0
-240 241 243 0
-240 -241 -243 0
26 27 0
-26 -27 0
242 243 0
-242 -243 0
28 31 0
-28 -31 0
244 247 0
-244 -247 0
30 31 -41 0
30 -31 41 0
-30 31 41 0
-30 -31 -41 0
246 247 -257 0
246 -247 257 0
-246 247 257 0
-246 -247 -257 0
32 34 -50 0
32 -34 50 0
-32 34 50 0
-32 -34 -50 0
248 250 -266 0
248 -250 266 0
-248 250 266 0
-248 -250 -266 0
33 34 -36 0
33 -34 36 0
-33 34 36 0
-33 -34 -36 0
249 250 -252 0
249 -250 252 0
-249 250 252 0
-249 -250 -252 0
35 36 -99 0
35 -36 99 0
-35 36 99 0
-35 -36 -99 0
251 252 -315 0
251 -252 315 0
-251 252 315 0
-251 -252 -315 0
37 38 -97 0
37 -38 97 0
-37 38 97 0
-37 -38 -97 0
253 254 -313 0
253 -254 313 0
-253 254 313 0
-253 -254 -313 0
38 40 -101 0
38 -40 101 0
-38 40 101 0
-38 -40 -101 0
254 256 -317 0
254 -256 317 0
-254 256 317 0
-254 -256 -317 0
39 40 -42 0
39 -40 42 0
-39 40 42 0
-39 -40 -42 0
255 256 -258 0
255 -256 258 0
-255 256 258 0
-255 -256 -258 0
41 42 -43 0
41 -42 43 0
-41 42 43 0
-41 -42 -43 0
257 258 -259 0
257 -258 259 0
-257 258 259 0
-257 -258 -259 0
43 45 -51 0
43 -45 51 0
-43 45 51 0
-43 -45 -51 0
259 261 -267 0
259 -261 267 0
-259 261 267 0
-259 -261 -267 0
44 45 -47 0
44 -45 47 0
-44 45 47 0
-44 -45 -47 0
260 261 -263 0
260 -261 263 0
-260 261 263 0
-260 -261 -263 0
46 47 0
-46 -47 0
262 263 0
-262 -263 0
48 52 0
-48 -52 0
264 268 0
-264 -268 0
50 51 -52 0
50 -51 52 0
-50 51 52 0
-50 -51 -52 0
266 267 -268 0
266 -267 268 0
-266 267 268 0
-266 -267 -268 0
53 85 0
-53 -85 0
269 301 0
-269 -301 0
53 88 0
-53 -88 0
269 304 0
-269 -304 0
55 100 0
-55 -100 0
271 316 0
-271 -316 0
55 57 -86 0
55 -57 86 0
-55 57 86 0
-55 -57 -86 0
271 273 -302 0
271 -273 302 0
-271 273 302 0
-271 -273 -302 0
57 94 0
-57 -94 0
273 310 0
-273 -310 0
58 61 -83 0
58 -61 83 0
-58 61 83 0
-58 -61 -83 0
274 277 -299 0
274 -277 299 0
-274 277 299 0
-274 -277 -299 0
58 59 0
-58 -59 0
274 275 0
-274 -275 0
59 60 0
-59 -60 0
275 276 0
-275 -276 0
60 62 0
-60 -62 0
276 278 0
-276 -278 0
61 62 -63 0
61 -62 63 0
-61 62 63 0
-61 -62 -63 0
277 278 -279 0
277 -278 279 0
-277 278 279 0
-277 -278 -279 0
63 65 0
-63 -65 0
279 281 0
-279 -281 0
65 67 0
-65 -67 0
281 283 0
-281 -283 0
67 68 0
-67 -68 0
283 284 0
-283 -284 0
68 69 -81 0
68 -69 81 0
-68 69 81 0
-68 -69 -81 0
284 285 -297 0
284 -285 297 0
-284 285 297 0
-284 -285 -297 0
69 74 0
-69 -74 0
285 290 0
-285 -290 0
72 77 0
-72 -77 0
288 293 0
-288 -293 0
71 72 -73 0
71 -72 73 0
-71 72 73 0
-71 -72 -73 0
287 288 -289 0
287 -288 289 0
-287 288 289 0
-287 -288 -289 0
73 75 -79 0
73 -75 79 0
-73 75 79 0
-73 -75 -79 0
289 291 -295 0
289 -291 295 0
-289 291 295 0
-289 -291 -295 0
74 75 -76 0
74 -75 76 0
-74 75 76 0
-74 -75 -76 0
290 291 -292 0
290 -291 292 0
-290 291 292 0
-290 -291 -292 0
76 78 -103 0
76 -78 103 0
-76 78 103 0
-76 -78 -103 0
292 294 -319 0
292 -294 319 0
-292 294 319 0
-292 -294 -319 0
77 78 0
-77 -78 0
293 294 0
-293 -294 0
79 82 0
-79 -82 0
295 298 0
-295 -298 0
81 82 -84 0
81 -82 84 0
-81 82 84 0
-81 -82 -84 0
297 298 -300 0
297 -298 300 0
-297 298 300 0
-297 -298 -300 0
83 84 0
-83 -84 0
299 300 0
-299 -300 0
85 87 0
-85 -87 0
301 303 0
-301 -303 0
86 87 0
-86 -87 0
302 303 0
-302 -303 0
88 91 0
-88 -91 0
304 307 0
-304 -307 0
91 93 0
-91 -93 0
307 309 0
-307 -309 0
93 95 0
-93 -95 0
309 311 0
-309 -311 0
94 95 -114 0
94 -95 114 0
-94 95 114 0
-94 -95 -114 0
310 311 -330 0
310 -311 330 0
-310 311 330 0
-310 -311 -330 0
98 144 0
-98 -144 0
314 360 0
-314 -360 0
97 98 0
-97 -98 0
313 314 0
-313 -314 0
99 100 -102 0
99 -100 102 0
-99 100 102 0
-99 -100 -102 0
315 316 -318 0
315 -316 318 0
-315 316 318 0
-315 -316 -318 0
101 102 0
-101 -102 0
317 318 0
-317 -318 0
103 106 0
-103 -106 0
319 322 0
-319 -322 0
106 112 0
-106 -112 0
322 328 0
-322 -328 0
107 110 -139 0
107 -110 139 0
-107 110 139 0
-107 -110 -139 0
323 326 -355 0
323 -326 355 0
-323 326 355 0
-323 -326 -355 0
107 108 -142 0
107 -108 142 0
-107 108 142 0
-107 -108 -142 0
323 324 -358 0
323 -324 358 0
-323 324 358 0
-323 -324 -358 0
108 109 -152 0
108 -109 152 0
-108 109 152 0
-108 -109 -152 0
324 325 -368 0
324 -325 368 0
-324 325 368 0
-324 -325 -368 0
109 111 -140 0
109 -111 140 0
-109 111 140 0
-109 -111 -140 0
325 327 -356 0
325 -327 356 0
-325 327 356 0
-325 -327 -356 0
110 111 0
-110 -111 0
326 327 0
-326 -327 0
112 117 -137 0
112 -117 137 0
-112 117 137 0
-112 -117 -137 0
328 333 -353 0
328 -333 353 0
-328 333 353 0
-328 -333 -353 0
115 119 0
-115 -119 0
331 335 0
-331 -335 0
114 115 -116 0
114 -115 116 0
-114 115 116 0
-114 -115 -116 0
330 331 -332 0
330 -331 332 0
-330 331 332 0
-330 -331 -332 0
116 118 0
-116 -118 0
332 334 0
-332 -334 0
117 118 -162 0
117 -118 162 0
-117 118 162 0
-117 -118 -162 0
333 334 -378 0
333 -334 378 0
-333 334 378 0
-333 -334 -378 0
120 146 -164 0
120 -146 164 0
-120 146 164 0
-120 -146 -164 0
336 362 -380 0
336 -362 380 0
-336 362 380 0
-336 -362 -380 0
119 120 -122 0
119 -120 122 0
-119 120 122 0
-119 -120 -122 0
335 336 -338 0
335 -336 338 0
-335 336 338 0
-335 -336 -338 0
122 123 0
-122 -123 0
338 339 0
-338 -339 0
123 124 0
-123 -124 0
339 340 0
-339 -340 0
124 125 -128 0
124 -125 128 0
-124 125 128 0
-124 -125 -128 0
340 341 -344 0
340 -341 344 0
-340 341 344 0
-340 -341 -344 0
125 126 -131 0
125 -126 131 0
-125 126 131 0
-125 -126 -131 0
341 342 -347 0
341 -342 347 0
-341 342 347 0
-341 -342 -347 0
126 127 -154 0
126 -127 154 0
-126 127 154 0
-126 -127 -154 0
342 343 -370 0
342 -343 370 0
-342 343 370 0
-342 -343 -370 0
127 133 0
-127 -133 0
343 349 0
-343 -349 0
128 130 0
-128 -130 0
344 346 0
-344 -346 0
130 132 -156 0
130 -132 156 0
-130 132 156 0
-130 -132 -156 0
346 348 -372 0
346 -348 372 0
-346 348 372 0
-346 -348 -372 0
131 132 -134 0
131 -132 134 0
-131 132 134 0
-131 -132 -134 0
347 348 -350 0
347 -348 350 0
-347 348 350 0
-347 -348 -350 0
133 134 -136 0
133 -134 136 0
-133 134 136 0
-133 -134 -136 0
349 350 -352 0
349 -350 352 0
-349 350 352 0
-349 -350 -352 0
136 138 0
-136 -138 0
352 354 0
-352 -354 0
137 138 -149 0
137 -138 149 0
-137 138 149 0
-137 -138 -149 0
353 354 -365 0
353 -354 365 0
-353 354 365 0
-353 -354 -365 0
139 141 -158 0
139 -141 158 0
-139 141 158 0
-139 -141 -158 0
355 357 -374 0
355 -357 374 0
-355 357 374 0
-355 -357 -374 0
140 141 -143 0
140 -141 143 0
-140 141 143 0
-140 -141 -143 0
356 357 -359 0
356 -357 359 0
-356 357 359 0
-356 -357 -359 0
142 143 -145 0
142 -143 145 0
-142 143 145 0
-142 -143 -145 0
358 359 -361 0
358 -359 361 0
-358 359 361 0
-358 -359 -361 0
144 145 -147 0
144 -145 147 0
-144 145 147 0
-144 -145 -147 0
360 361 -363 0
360 -361 363 0
-360 361 363 0
-360 -361 -363 0
146 147 0
-146 -147 0
362 363 0
-362 -363 0
150 212 0
-150 -212 0
366 428 0
-366 -428 0
149 150 -151 0
149 -150 151 0
-149 150 151 0
-149 -150 -151 0
365 366 -367 0
365 -366 367 0
-365 366 367 0
-365 -366 -367 0
151 153 -159 0
151 -153 159 0
-151 153 159 0
-151 -153 -159 0
367 369 -375 0
367 -369 375 0
-367 369 375 0
-367 -369 -375 0
152 153 0
-152 -153 0
368 369 0
-368 -369 0
154 157 0
-154 -157 0
370 373 0
-370 -373 0
156 157 0
-156 -157 0
372 373 0
-372 -373 0
158 159 0
-158 -159 0
374 375 0
-374 -375 0
161 165 0
-161 -165 0
377 381 0
-377 -381 0
161 163 -196 0
161 -163 196 0
-161 163 196 0
-161 -163 -196 0
377 379 -412 0
377 -379 412 0
-377 379 412 0
-377 -379 -412 0
162 163 0
-162 -163 0
378 379 0
-378 -379 0
164 166 -194 0
164 -166 194 0
-164 166 194 0
-164 -166 -194 0
380 382 -410 0
380 -382 410 0
-380 382 410 0
-380 -382 -410 0
165 166 -202 0
165 -166 202 0
-165 166 202 0
-165 -166 -202 0
381 382 -418 0
381 -382 418 0
-381 382 418 0
-381 -382 -418 0
167 170 -191 0
167 -170 191 0
-167 170 191 0
-167 -170 -191 0
383 386 -407 0
383 -386 407 0
-383 386 407 0
-383 -386 -407 0
167 168 -173 0
167 -168 173 0
-167 168 173 0
-167 -168 -173 0
383 384 -389 0
383 -384 389 0
-383 384 389 0
-383 -384 -389 0
168 169 -198 0
168 -169 198 0
-168 169 198 0
-168 -169 -198 0
384 385 -414 0
384 -385 414 0
-384 385 414 0
-384 -385 -414 0
169 171 0
-169 -171 0
385 387 0
-385 -387 0
170 171 -172 0
170 -171 172 0
-170 171 172 0
-170 -171 -172 0
386 387 -388 0
386 -387 388 0
-386 387 388 0
-386 -387 -388 0
172 174 -200 0
172 -174 200 0
-172 174 200 0
-172 -174 -200 0
388 390 -416 0
388 -390 416 0
-388 390 416 0
-388 -390 -416 0
173 174 -176 0
173 -174 176 0
-173 174 176 0
-173 -174 -176 0
389 390 -392 0
389 -390 392 0
-389 390 392 0
-389 -390 -392 0
176 177 0
-176 -177 0
392 393 0
-392 -393 0
177 189 0
-177 -189 0
393 405 0
-393 -405 0
179 182 0
-179 -182 0
395 398 0
-395 -398 0
179 180 0
-179 -180 0
395 396 0
-395 -396 0
180 181 -210 0
180 -181 210 0
-180 181 210 0
-180 -181 -210 0
396 397 -426 0
396 -397 426 0
-396 397 426 0
-396 -397 -426 0
181 183 -187 0
181 -183 187 0
-181 183 187 0
-181 -183 -187 0
397 399 -403 0
397 -399 403 0
-397 399 403 0
-397 -399 -403 0
182 183 -184 0
182 -183 184 0
-182 183 184 0
-182 -183 -184 0
398 399 -400 0
398 -399 400 0
-398 399 400 0
-398 -399 -400 0
184 186 -213 0
184 -186 213 0
-184 186 213 0
-184 -186 -213 0
400 402 -429 0
400 -402 429 0
-400 402 429 0
-400 -402 -429 0
186 188 0
-186 -188 0
402 404 0
-402 -404 0
187 188 0
-187 -188 0
403 404 0
-403 -404 0
189 192 0
-189 -192 0
405 408 0
-405 -408 0
191 192 -204 0
191 -192 204 0
-191 192 204 0
-191 -192 -204 0
407 408 -420 0
407 -408 420 0
-407 408 420 0
-407 -408 -420 0
195 214 0
-195 -214 0
411 430 0
-411 -430 0
194 195 0
-194 -195 0
410 411 0
-410 -411 0
196 199 0
-196 -199 0
412 415 0
-412 -415 0
198 199 0
-198 -199 0
414 415 0
-414 -415 0
200 203 0
-200 -203 0
416 419 0
-416 -419 0
202 203 -205 0
202 -203 205 0
-202 203 205 0
-202 -203 -205 0
418 419 -421 0
418 -419 421 0
-418 419 421 0
-418 -419 -421 0
204 205 0
-204 -205 0
420 421 0
-420 -421 0
208 215 0
-208 -215 0
424 431 0
-424 -431 0
208 211 0
-208 -211 0
424 427 0
-424 -427 0
210 211 0
-210 -211 0
426 427 0
-426 -427 0
212 213 -216 0
212 -213 216 0
-212 213 216 0
-212 -213 -216 0
428 429 -432 0
428 -429 432 0
-428 429 432 0
-428 -429 -432 0
214 215 -216 0
214 -215 216 0
-214 215 216 0
-214 -215 -216 0
430 431 -432 0
430 -431 432 0
-430 431 432 0
-430 -431 -432 0
