c fano-binary-cycle-repair-v1
c SAT iff the named normalized incidence has a repair
c switch=6 target=3 other=5
p cnf 648 3292
-1 0
-217 -433 0
-218 -434 0
-3 0
-219 -435 0
-220 -436 0
-221 -437 0
5 -221 0
5 -437 0
-6 0
-222 -438 0
-223 -439 0
-8 0
-224 -440 0
-225 -441 0
-226 -442 0
-227 -443 0
-11 -227 0
-11 -443 0
-228 -444 0
-229 -445 0
-230 -446 0
-231 -447 0
-15 -231 0
-15 -447 0
-232 -448 0
-233 -449 0
-17 -233 0
-17 -449 0
-234 -450 0
-235 -451 0
-236 -452 0
-237 -453 0
-22 0
-238 -454 0
-239 -455 0
-240 -456 0
24 -240 0
24 -456 0
-25 0
-241 -457 0
-242 -458 0
-243 -459 0
-27 -243 0
-27 -459 0
-244 -460 0
-245 -461 0
-246 -462 0
-31 0
-247 -463 0
-248 -464 0
-249 -465 0
-33 -249 0
-33 -465 0
-250 -466 0
-251 -467 0
-252 -468 0
-253 -469 0
-254 -470 0
-255 -471 0
-256 -472 0
-40 -256 0
-40 -472 0
-257 -473 0
-258 -474 0
-259 -475 0
43 -259 0
43 -475 0
-260 -476 0
-261 -477 0
-45 -261 0
-45 -477 0
-46 0
-262 -478 0
-263 -479 0
-264 -480 0
-265 -481 0
-266 -482 0
-50 -266 0
-50 -482 0
-51 0
-267 -483 0
-268 -484 0
52 -268 0
52 -484 0
-269 -485 0
-53 -269 0
-53 -485 0
-270 -486 0
-271 -487 0
-272 -488 0
-273 -489 0
57 -273 0
57 -489 0
-58 0
-274 -490 0
-275 -491 0
-60 0
-276 -492 0
-277 -493 0
-278 -494 0
-279 -495 0
-63 -279 0
-63 -495 0
-280 -496 0
-281 -497 0
-282 -498 0
-283 -499 0
-67 -283 0
-67 -499 0
-284 -500 0
-285 -501 0
-286 -502 0
-287 -503 0
-72 0
-288 -504 0
-289 -505 0
-74 0
-290 -506 0
-291 -507 0
75 -291 0
75 -507 0
-292 -508 0
-76 -292 0
-76 -508 0
-293 -509 0
-78 0
-294 -510 0
-295 -511 0
-296 -512 0
-297 -513 0
81 -297 0
81 -513 0
-82 0
-298 -514 0
-299 -515 0
-300 -516 0
-84 -300 0
-84 -516 0
-301 -517 0
-302 -518 0
-303 -519 0
-87 -303 0
-87 -519 0
-304 -520 0
-305 -521 0
-306 -522 0
-307 -523 0
-91 -307 0
-91 -523 0
-308 -524 0
-309 -525 0
-310 -526 0
-311 -527 0
-95 -311 0
-95 -527 0
-312 -528 0
-313 -529 0
-97 -313 0
-97 -529 0
-314 -530 0
-315 -531 0
-99 -315 0
-99 -531 0
-100 0
-316 -532 0
-317 -533 0
-318 -534 0
102 -318 0
102 -534 0
-319 -535 0
103 -319 0
103 -535 0
-320 -536 0
-321 -537 0
-322 -538 0
-107 0
-323 -539 0
-324 -540 0
-108 -324 0
-108 -540 0
-109 0
-325 -541 0
-326 -542 0
-327 -543 0
-111 -327 0
-111 -543 0
-328 -544 0
112 -328 0
112 -544 0
-329 -545 0
-330 -546 0
-331 -547 0
-332 -548 0
116 -332 0
116 -548 0
-333 -549 0
-117 -333 0
-117 -549 0
-334 -550 0
-335 -551 0
-119 -335 0
-119 -551 0
-120 0
-336 -552 0
-337 -553 0
-338 -554 0
122 -338 0
122 -554 0
-339 -555 0
-340 -556 0
124 -340 0
124 -556 0
-341 -557 0
-125 -341 0
-125 -557 0
-342 -558 0
-343 -559 0
-128 0
-344 -560 0
-345 -561 0
-346 -562 0
-347 -563 0
-348 -564 0
-349 -565 0
-133 -349 0
-133 -565 0
-134 0
-350 -566 0
-351 -567 0
-352 -568 0
136 -352 0
136 -568 0
-137 0
-353 -569 0
-354 -570 0
-355 -571 0
-356 -572 0
140 -356 0
140 -572 0
-357 -573 0
-358 -574 0
142 -358 0
142 -574 0
-359 -575 0
-360 -576 0
-144 -360 0
-144 -576 0
-361 -577 0
-362 -578 0
146 -362 0
146 -578 0
-363 -579 0
-364 -580 0
-365 -581 0
-366 -582 0
-151 0
-367 -583 0
-368 -584 0
152 -368 0
152 -584 0
-369 -585 0
-370 -586 0
154 -370 0
154 -586 0
-371 -587 0
-372 -588 0
156 -372 0
156 -588 0
-373 -589 0
-374 -590 0
-158 -374 0
-158 -590 0
-375 -591 0
-376 -592 0
-377 -593 0
-161 -377 0
-161 -593 0
-378 -594 0
-163 0
-379 -595 0
-380 -596 0
-164 -380 0
-164 -596 0
-381 -597 0
-382 -598 0
-383 -599 0
-384 -600 0
-385 -601 0
-386 -602 0
-387 -603 0
-171 -387 0
-171 -603 0
-388 -604 0
-389 -605 0
173 -389 0
173 -605 0
-174 0
-390 -606 0
-391 -607 0
-392 -608 0
-176 -392 0
-176 -608 0
-393 -609 0
-394 -610 0
-395 -611 0
-396 -612 0
180 -396 0
180 -612 0
-397 -613 0
-398 -614 0
182 -398 0
182 -614 0
-399 -615 0
-400 -616 0
-401 -617 0
-402 -618 0
186 -402 0
186 -618 0
-403 -619 0
187 -403 0
187 -619 0
-404 -620 0
-405 -621 0
-189 -405 0
-189 -621 0
-406 -622 0
-407 -623 0
191 -407 0
191 -623 0
-408 -624 0
-409 -625 0
-410 -626 0
-411 -627 0
195 -411 0
195 -627 0
-412 -628 0
196 -412 0
196 -628 0
-413 -629 0
-414 -630 0
198 -414 0
198 -630 0
-415 -631 0
-416 -632 0
-417 -633 0
-418 -634 0
202 -418 0
202 -634 0
-419 -635 0
-203 -419 0
-203 -635 0
-420 -636 0
-205 0
-421 -637 0
-422 -638 0
-423 -639 0
-424 -640 0
-425 -641 0
-426 -642 0
-427 -643 0
-211 -427 0
-211 -643 0
-428 -644 0
212 -428 0
212 -644 0
-429 -645 0
-430 -646 0
-431 -647 0
-215 -431 0
-215 -647 0
-432 -648 0
1 4 -32 0
1 -4 32 0
-1 4 32 0
-1 -4 -32 0
217 220 -248 0
217 -220 248 0
-217 220 248 0
-217 -220 -248 0
433 436 -464 0
433 -436 464 0
-433 436 464 0
-433 -436 -464 0
1 2 -35 0
1 -2 35 0
-1 2 35 0
-1 -2 -35 0
217 218 -251 0
217 -218 251 0
-217 218 251 0
-217 -218 -251 0
433 434 -467 0
433 -434 467 0
-433 434 467 0
-433 -434 -467 0
2 3 -44 0
2 -3 44 0
-2 3 44 0
-2 -3 -44 0
218 219 -260 0
218 -219 260 0
-218 219 260 0
-218 -219 -260 0
434 435 -476 0
434 -435 476 0
-434 435 476 0
-434 -435 -476 0
3 5 -33 0
3 -5 33 0
-3 5 33 0
-3 -5 -33 0
219 221 249 5 33 0
219 221 249 -5 -33 0
219 221 -249 5 -33 0
219 221 -249 -5 33 0
219 -221 249 5 -33 0
219 -221 249 -5 33 0
219 -221 -249 5 33 0
219 -221 -249 -5 -33 0
-219 221 249 5 -33 0
-219 221 249 -5 33 0
-219 221 -249 5 33 0
-219 221 -249 -5 -33 0
-219 -221 249 5 33 0
-219 -221 249 -5 -33 0
-219 -221 -249 5 -33 0
-219 -221 -249 -5 33 0
435 437 465 5 33 0
435 437 465 -5 -33 0
435 437 -465 5 -33 0
435 437 -465 -5 33 0
435 -437 465 5 -33 0
435 -437 465 -5 33 0
435 -437 -465 5 33 0
435 -437 -465 -5 -33 0
-435 437 465 5 -33 0
-435 437 465 -5 33 0
-435 437 -465 5 33 0
-435 437 -465 -5 -33 0
-435 -437 465 5 33 0
-435 -437 465 -5 -33 0
-435 -437 -465 5 -33 0
-435 -437 -465 -5 33 0
4 5 -39 0
4 -5 39 0
-4 5 39 0
-4 -5 -39 0
220 221 255 5 0
220 221 -255 -5 0
220 -221 255 -5 0
220 -221 -255 5 0
-220 221 255 -5 0
-220 221 -255 5 0
-220 -221 255 5 0
-220 -221 -255 -5 0
436 437 471 5 0
436 437 -471 -5 0
436 -437 471 -5 0
436 -437 -471 5 0
-436 437 471 -5 0
-436 437 -471 5 0
-436 -437 471 5 0
-436 -437 -471 -5 0
6 9 -30 0
6 -9 30 0
-6 9 30 0
-6 -9 -30 0
222 225 -246 0
222 -225 246 0
-222 225 246 0
-222 -225 -246 0
438 441 -462 0
438 -441 462 0
-438 441 462 0
-438 -441 -462 0
6 7 -12 0
6 -7 12 0
-6 7 12 0
-6 -7 -12 0
222 223 -228 0
222 -223 228 0
-222 223 228 0
-222 -223 -228 0
438 439 -444 0
438 -439 444 0
-438 439 444 0
-438 -439 -444 0
7 8 -37 0
7 -8 37 0
-7 8 37 0
-7 -8 -37 0
223 224 -253 0
223 -224 253 0
-223 224 253 0
-223 -224 -253 0
439 440 -469 0
439 -440 469 0
-439 440 469 0
-439 -440 -469 0
8 10 -14 0
8 -10 14 0
-8 10 14 0
-8 -10 -14 0
224 226 -230 0
224 -226 230 0
-224 226 230 0
-224 -226 -230 0
440 442 -446 0
440 -442 446 0
-440 442 446 0
-440 -442 -446 0
9 10 -11 0
9 -10 11 0
-9 10 11 0
-9 -10 -11 0
225 226 227 -11 0
225 226 -227 11 0
225 -226 227 11 0
225 -226 -227 -11 0
-225 226 227 11 0
-225 226 -227 -11 0
-225 -226 227 -11 0
-225 -226 -227 11 0
441 442 443 -11 0
441 442 -443 11 0
441 -442 443 11 0
441 -442 -443 -11 0
-441 442 443 11 0
-441 442 -443 -11 0
-441 -442 443 -11 0
-441 -442 -443 11 0
11 13 -71 0
11 -13 71 0
-11 13 71 0
-11 -13 -71 0
227 229 287 -11 0
227 229 -287 11 0
227 -229 287 11 0
227 -229 -287 -11 0
-227 229 287 11 0
-227 229 -287 -11 0
-227 -229 287 -11 0
-227 -229 -287 11 0
443 445 503 -11 0
443 445 -503 11 0
443 -445 503 11 0
443 -445 -503 -11 0
-443 445 503 11 0
-443 445 -503 -11 0
-443 -445 503 -11 0
-443 -445 -503 11 0
12 13 -15 0
12 -13 15 0
-12 13 15 0
-12 -13 -15 0
228 229 231 -15 0
228 229 -231 15 0
228 -229 231 15 0
228 -229 -231 -15 0
-228 229 231 15 0
-228 229 -231 -15 0
-228 -229 231 -15 0
-228 -229 -231 15 0
444 445 447 -15 0
444 445 -447 15 0
444 -445 447 15 0
444 -445 -447 -15 0
-444 445 447 15 0
-444 445 -447 -15 0
-444 -445 447 -15 0
-444 -445 -447 15 0
14 15 -16 0
14 -15 16 0
-14 15 16 0
-14 -15 -16 0
230 231 232 -15 0
230 231 -232 15 0
230 -231 232 15 0
230 -231 -232 -15 0
-230 231 232 15 0
-230 231 -232 -15 0
-230 -231 232 -15 0
-230 -231 -232 15 0
446 447 448 -15 0
446 447 -448 15 0
446 -447 448 15 0
446 -447 -448 -15 0
-446 447 448 15 0
-446 447 -448 -15 0
-446 -447 448 -15 0
-446 -447 -448 15 0
16 17 -28 0
16 -17 28 0
-16 17 28 0
-16 -17 -28 0
232 233 244 -17 0
232 233 -244 17 0
232 -233 244 17 0
232 -233 -244 -17 0
-232 233 244 17 0
-232 233 -244 -17 0
-232 -233 244 -17 0
-232 -233 -244 17 0
448 449 460 -17 0
448 449 -460 17 0
448 -449 460 17 0
448 -449 -460 -17 0
-448 449 460 17 0
-448 449 -460 -17 0
-448 -449 460 -17 0
-448 -449 -460 17 0
17 18 -21 0
17 -18 21 0
-17 18 21 0
-17 -18 -21 0
233 234 237 -17 0
233 234 -237 17 0
233 -234 237 17 0
233 -234 -237 -17 0
-233 234 237 17 0
-233 234 -237 -17 0
-233 -234 237 -17 0
-233 -234 -237 17 0
449 450 453 -17 0
449 450 -453 17 0
449 -450 453 17 0
449 -450 -453 -17 0
-449 450 453 17 0
-449 450 -453 -17 0
-449 -450 453 -17 0
-449 -450 -453 17 0
18 19 -24 0
18 -19 24 0
-18 19 24 0
-18 -19 -24 0
234 235 240 24 0
234 235 -240 -24 0
234 -235 240 -24 0
234 -235 -240 24 0
-234 235 240 -24 0
-234 235 -240 24 0
-234 -235 240 24 0
-234 -235 -240 -24 0
450 451 456 24 0
450 451 -456 -24 0
450 -451 456 -24 0
450 -451 -456 24 0
-450 451 456 -24 0
-450 451 -456 24 0
-450 -451 456 24 0
-450 -451 -456 -24 0
19 20 -46 0
19 -20 46 0
-19 20 46 0
-19 -20 -46 0
235 236 -262 0
235 -236 262 0
-235 236 262 0
-235 -236 -262 0
451 452 -478 0
451 -452 478 0
-451 452 478 0
-451 -452 -478 0
20 22 -26 0
20 -22 26 0
-20 22 26 0
-20 -22 -26 0
236 238 -242 0
236 -238 242 0
-236 238 242 0
-236 -238 -242 0
452 454 -458 0
452 -454 458 0
-452 454 458 0
-452 -454 -458 0
21 22 -23 0
21 -22 23 0
-21 22 23 0
-21 -22 -23 0
237 238 -239 0
237 -238 239 0
-237 238 239 0
-237 -238 -239 0
453 454 -455 0
453 -454 455 0
-453 454 455 0
-453 -454 -455 0
23 25 -48 0
23 -25 48 0
-23 25 48 0
-23 -25 -48 0
239 241 -264 0
239 -241 264 0
-239 241 264 0
-239 -241 -264 0
455 457 -480 0
455 -457 480 0
-455 457 480 0
-455 -457 -480 0
24 25 -27 0
24 -25 27 0
-24 25 27 0
-24 -25 -27 0
240 241 243 24 27 0
240 241 243 -24 -27 0
240 241 -243 24 -27 0
240 241 -243 -24 27 0
240 -241 243 24 -27 0
240 -241 243 -24 27 0
240 -241 -243 24 27 0
240 -241 -243 -24 -27 0
-240 241 243 24 -27 0
-240 241 243 -24 27 0
-240 241 -243 24 27 0
-240 241 -243 -24 -27 0
-240 -241 243 24 27 0
-240 -241 243 -24 -27 0
-240 -241 -243 24 -27 0
-240 -241 -243 -24 27 0
456 457 459 24 27 0
456 457 459 -24 -27 0
456 457 -459 24 -27 0
456 457 -459 -24 27 0
456 -457 459 24 -27 0
456 -457 459 -24 27 0
456 -457 -459 24 27 0
456 -457 -459 -24 -27 0
-456 457 459 24 -27 0
-456 457 459 -24 27 0
-456 457 -459 24 27 0
-456 457 -459 -24 -27 0
-456 -457 459 24 27 0
-456 -457 459 -24 -27 0
-456 -457 -459 24 -27 0
-456 -457 -459 -24 27 0
26 27 -29 0
26 -27 29 0
-26 27 29 0
-26 -27 -29 0
242 243 245 -27 0
242 243 -245 27 0
242 -243 245 27 0
242 -243 -245 -27 0
-242 243 245 27 0
-242 243 -245 -27 0
-242 -243 245 -27 0
-242 -243 -245 27 0
458 459 461 -27 0
458 459 -461 27 0
458 -459 461 27 0
458 -459 -461 -27 0
-458 459 461 27 0
-458 459 -461 -27 0
-458 -459 461 -27 0
-458 -459 -461 27 0
28 29 -31 0
28 -29 31 0
-28 29 31 0
-28 -29 -31 0
244 245 -247 0
244 -245 247 0
-244 245 247 0
-244 -245 -247 0
460 461 -463 0
460 -461 463 0
-460 461 463 0
-460 -461 -463 0
30 31 -41 0
30 -31 41 0
-30 31 41 0
-30 -31 -41 0
246 247 -257 0
246 -247 257 0
-246 247 257 0
-246 -247 -257 0
462 463 -473 0
462 -463 473 0
-462 463 473 0
-462 -463 -473 0
32 34 -50 0
32 -34 50 0
-32 34 50 0
-32 -34 -50 0
248 250 266 -50 0
248 250 -266 50 0
248 -250 266 50 0
248 -250 -266 -50 0
-248 250 266 50 0
-248 250 -266 -50 0
-248 -250 266 -50 0
-248 -250 -266 50 0
464 466 482 -50 0
464 466 -482 50 0
464 -466 482 50 0
464 -466 -482 -50 0
-464 466 482 50 0
-464 466 -482 -50 0
-464 -466 482 -50 0
-464 -466 -482 50 0
33 34 -36 0
33 -34 36 0
-33 34 36 0
-33 -34 -36 0
249 250 252 -33 0
249 250 -252 33 0
249 -250 252 33 0
249 -250 -252 -33 0
-249 250 252 33 0
-249 250 -252 -33 0
-249 -250 252 -33 0
-249 -250 -252 33 0
465 466 468 -33 0
465 466 -468 33 0
465 -466 468 33 0
465 -466 -468 -33 0
-465 466 468 33 0
-465 466 -468 -33 0
-465 -466 468 -33 0
-465 -466 -468 33 0
35 36 -99 0
35 -36 99 0
-35 36 99 0
-35 -36 -99 0
251 252 315 -99 0
251 252 -315 99 0
251 -252 315 99 0
251 -252 -315 -99 0
-251 252 315 99 0
-251 252 -315 -99 0
-251 -252 315 -99 0
-251 -252 -315 99 0
467 468 531 -99 0
467 468 -531 99 0
467 -468 531 99 0
467 -468 -531 -99 0
-467 468 531 99 0
-467 468 -531 -99 0
-467 -468 531 -99 0
-467 -468 -531 99 0
37 38 -97 0
37 -38 97 0
-37 38 97 0
-37 -38 -97 0
253 254 313 -97 0
253 254 -313 97 0
253 -254 313 97 0
253 -254 -313 -97 0
-253 254 313 97 0
-253 254 -313 -97 0
-253 -254 313 -97 0
-253 -254 -313 97 0
469 470 529 -97 0
469 470 -529 97 0
469 -470 529 97 0
469 -470 -529 -97 0
-469 470 529 97 0
-469 470 -529 -97 0
-469 -470 529 -97 0
-469 -470 -529 97 0
38 40 -101 0
38 -40 101 0
-38 40 101 0
-38 -40 -101 0
254 256 317 -40 0
254 256 -317 40 0
254 -256 317 40 0
254 -256 -317 -40 0
-254 256 317 40 0
-254 256 -317 -40 0
-254 -256 317 -40 0
-254 -256 -317 40 0
470 472 533 -40 0
470 472 -533 40 0
470 -472 533 40 0
470 -472 -533 -40 0
-470 472 533 40 0
-470 472 -533 -40 0
-470 -472 533 -40 0
-470 -472 -533 40 0
39 40 -42 0
39 -40 42 0
-39 40 42 0
-39 -40 -42 0
255 256 258 -40 0
255 256 -258 40 0
255 -256 258 40 0
255 -256 -258 -40 0
-255 256 258 40 0
-255 256 -258 -40 0
-255 -256 258 -40 0
-255 -256 -258 40 0
471 472 474 -40 0
471 472 -474 40 0
471 -472 474 40 0
471 -472 -474 -40 0
-471 472 474 40 0
-471 472 -474 -40 0
-471 -472 474 -40 0
-471 -472 -474 40 0
41 42 -43 0
41 -42 43 0
-41 42 43 0
-41 -42 -43 0
257 258 259 43 0
257 258 -259 -43 0
257 -258 259 -43 0
257 -258 -259 43 0
-257 258 259 -43 0
-257 258 -259 43 0
-257 -258 259 43 0
-257 -258 -259 -43 0
473 474 475 43 0
473 474 -475 -43 0
473 -474 475 -43 0
473 -474 -475 43 0
-473 474 475 -43 0
-473 474 -475 43 0
-473 -474 475 43 0
-473 -474 -475 -43 0
43 45 -51 0
43 -45 51 0
-43 45 51 0
-43 -45 -51 0
259 261 267 43 45 0
259 261 267 -43 -45 0
259 261 -267 43 -45 0
259 261 -267 -43 45 0
259 -261 267 43 -45 0
259 -261 267 -43 45 0
259 -261 -267 43 45 0
259 -261 -267 -43 -45 0
-259 261 267 43 -45 0
-259 261 267 -43 45 0
-259 261 -267 43 45 0
-259 261 -267 -43 -45 0
-259 -261 267 43 45 0
-259 -261 267 -43 -45 0
-259 -261 -267 43 -45 0
-259 -261 -267 -43 45 0
475 477 483 43 45 0
475 477 483 -43 -45 0
475 477 -483 43 -45 0
475 477 -483 -43 45 0
475 -477 483 43 -45 0
475 -477 483 -43 45 0
475 -477 -483 43 45 0
475 -477 -483 -43 -45 0
-475 477 483 43 -45 0
-475 477 483 -43 45 0
-475 477 -483 43 45 0
-475 477 -483 -43 -45 0
-475 -477 483 43 45 0
-475 -477 483 -43 -45 0
-475 -477 -483 43 -45 0
-475 -477 -483 -43 45 0
44 45 -47 0
44 -45 47 0
-44 45 47 0
-44 -45 -47 0
260 261 263 -45 0
260 261 -263 45 0
260 -261 263 45 0
260 -261 -263 -45 0
-260 261 263 45 0
-260 261 -263 -45 0
-260 -261 263 -45 0
-260 -261 -263 45 0
476 477 479 -45 0
476 477 -479 45 0
476 -477 479 45 0
476 -477 -479 -45 0
-476 477 479 45 0
-476 477 -479 -45 0
-476 -477 479 -45 0
-476 -477 -479 45 0
46 47 -49 0
46 -47 49 0
-46 47 49 0
-46 -47 -49 0
262 263 -265 0
262 -263 265 0
-262 263 265 0
-262 -263 -265 0
478 479 -481 0
478 -479 481 0
-478 479 481 0
-478 -479 -481 0
48 49 -52 0
48 -49 52 0
-48 49 52 0
-48 -49 -52 0
264 265 268 52 0
264 265 -268 -52 0
264 -265 268 -52 0
264 -265 -268 52 0
-264 265 268 -52 0
-264 265 -268 52 0
-264 -265 268 52 0
-264 -265 -268 -52 0
480 481 484 52 0
480 481 -484 -52 0
480 -481 484 -52 0
480 -481 -484 52 0
-480 481 484 -52 0
-480 481 -484 52 0
-480 -481 484 52 0
-480 -481 -484 -52 0
50 51 -52 0
50 -51 52 0
-50 51 52 0
-50 -51 -52 0
266 267 268 50 52 0
266 267 268 -50 -52 0
266 267 -268 50 -52 0
266 267 -268 -50 52 0
266 -267 268 50 -52 0
266 -267 268 -50 52 0
266 -267 -268 50 52 0
266 -267 -268 -50 -52 0
-266 267 268 50 -52 0
-266 267 268 -50 52 0
-266 267 -268 50 52 0
-266 267 -268 -50 -52 0
-266 -267 268 50 52 0
-266 -267 268 -50 -52 0
-266 -267 -268 50 -52 0
-266 -267 -268 -50 52 0
482 483 484 50 52 0
482 483 484 -50 -52 0
482 483 -484 50 -52 0
482 483 -484 -50 52 0
482 -483 484 50 -52 0
482 -483 484 -50 52 0
482 -483 -484 50 52 0
482 -483 -484 -50 -52 0
-482 483 484 50 -52 0
-482 483 484 -50 52 0
-482 483 -484 50 52 0
-482 483 -484 -50 -52 0
-482 -483 484 50 52 0
-482 -483 484 -50 -52 0
-482 -483 -484 50 -52 0
-482 -483 -484 -50 52 0
53 56 -85 0
53 -56 85 0
-53 56 85 0
-53 -56 -85 0
269 272 301 -53 0
269 272 -301 53 0
269 -272 301 53 0
269 -272 -301 -53 0
-269 272 301 53 0
-269 272 -301 -53 0
-269 -272 301 -53 0
-269 -272 -301 53 0
485 488 517 -53 0
485 488 -517 53 0
485 -488 517 53 0
485 -488 -517 -53 0
-485 488 517 53 0
-485 488 -517 -53 0
-485 -488 517 -53 0
-485 -488 -517 53 0
53 54 -88 0
53 -54 88 0
-53 54 88 0
-53 -54 -88 0
269 270 304 -53 0
269 270 -304 53 0
269 -270 304 53 0
269 -270 -304 -53 0
-269 270 304 53 0
-269 270 -304 -53 0
-269 -270 304 -53 0
-269 -270 -304 53 0
485 486 520 -53 0
485 486 -520 53 0
485 -486 520 53 0
485 -486 -520 -53 0
-485 486 520 53 0
-485 486 -520 -53 0
-485 -486 520 -53 0
-485 -486 -520 53 0
54 55 -100 0
54 -55 100 0
-54 55 100 0
-54 -55 -100 0
270 271 -316 0
270 -271 316 0
-270 271 316 0
-270 -271 -316 0
486 487 -532 0
486 -487 532 0
-486 487 532 0
-486 -487 -532 0
55 57 -86 0
55 -57 86 0
-55 57 86 0
-55 -57 -86 0
271 273 302 57 0
271 273 -302 -57 0
271 -273 302 -57 0
271 -273 -302 57 0
-271 273 302 -57 0
-271 273 -302 57 0
-271 -273 302 57 0
-271 -273 -302 -57 0
487 489 518 57 0
487 489 -518 -57 0
487 -489 518 -57 0
487 -489 -518 57 0
-487 489 518 -57 0
-487 489 -518 57 0
-487 -489 518 57 0
-487 -489 -518 -57 0
56 57 -94 0
56 -57 94 0
-56 57 94 0
-56 -57 -94 0
272 273 310 57 0
272 273 -310 -57 0
272 -273 310 -57 0
272 -273 -310 57 0
-272 273 310 -57 0
-272 273 -310 57 0
-272 -273 310 57 0
-272 -273 -310 -57 0
488 489 526 57 0
488 489 -526 -57 0
488 -489 526 -57 0
488 -489 -526 57 0
-488 489 526 -57 0
-488 489 -526 57 0
-488 -489 526 57 0
-488 -489 -526 -57 0
58 61 -83 0
58 -61 83 0
-58 61 83 0
-58 -61 -83 0
274 277 -299 0
274 -277 299 0
-274 277 299 0
-274 -277 -299 0
490 493 -515 0
490 -493 515 0
-490 493 515 0
-490 -493 -515 0
58 59 -64 0
58 -59 64 0
-58 59 64 0
-58 -59 -64 0
274 275 -280 0
274 -275 280 0
-274 275 280 0
-274 -275 -280 0
490 491 -496 0
490 -491 496 0
-490 491 496 0
-490 -491 -496 0
59 60 -90 0
59 -60 90 0
-59 60 90 0
-59 -60 -90 0
275 276 -306 0
275 -276 306 0
-275 276 306 0
-275 -276 -306 0
491 492 -522 0
491 -492 522 0
-491 492 522 0
-491 -492 -522 0
60 62 -66 0
60 -62 66 0
-60 62 66 0
-60 -62 -66 0
276 278 -282 0
276 -278 282 0
-276 278 282 0
-276 -278 -282 0
492 494 -498 0
492 -494 498 0
-492 494 498 0
-492 -494 -498 0
61 62 -63 0
61 -62 63 0
-61 62 63 0
-61 -62 -63 0
277 278 279 -63 0
277 278 -279 63 0
277 -278 279 63 0
277 -278 -279 -63 0
-277 278 279 63 0
-277 278 -279 -63 0
-277 -278 279 -63 0
-277 -278 -279 63 0
493 494 495 -63 0
493 494 -495 63 0
493 -494 495 63 0
493 -494 -495 -63 0
-493 494 495 63 0
-493 494 -495 -63 0
-493 -494 495 -63 0
-493 -494 -495 63 0
63 65 -92 0
63 -65 92 0
-63 65 92 0
-63 -65 -92 0
279 281 308 -63 0
279 281 -308 63 0
279 -281 308 63 0
279 -281 -308 -63 0
-279 281 308 63 0
-279 281 -308 -63 0
-279 -281 308 -63 0
-279 -281 -308 63 0
495 497 524 -63 0
495 497 -524 63 0
495 -497 524 63 0
495 -497 -524 -63 0
-495 497 524 63 0
-495 497 -524 -63 0
-495 -497 524 -63 0
-495 -497 -524 63 0
64 65 -67 0
64 -65 67 0
-64 65 67 0
-64 -65 -67 0
280 281 283 -67 0
280 281 -283 67 0
280 -281 283 67 0
280 -281 -283 -67 0
-280 281 283 67 0
-280 281 -283 -67 0
-280 -281 283 -67 0
-280 -281 -283 67 0
496 497 499 -67 0
496 497 -499 67 0
496 -497 499 67 0
496 -497 -499 -67 0
-496 497 499 67 0
-496 497 -499 -67 0
-496 -497 499 -67 0
-496 -497 -499 67 0
66 67 -68 0
66 -67 68 0
-66 67 68 0
-66 -67 -68 0
282 283 284 -67 0
282 283 -284 67 0
282 -283 284 67 0
282 -283 -284 -67 0
-282 283 284 67 0
-282 283 -284 -67 0
-282 -283 284 -67 0
-282 -283 -284 67 0
498 499 500 -67 0
498 499 -500 67 0
498 -499 500 67 0
498 -499 -500 -67 0
-498 499 500 67 0
-498 499 -500 -67 0
-498 -499 500 -67 0
-498 -499 -500 67 0
68 69 -81 0
68 -69 81 0
-68 69 81 0
-68 -69 -81 0
284 285 297 81 0
284 285 -297 -81 0
284 -285 297 -81 0
284 -285 -297 81 0
-284 285 297 -81 0
-284 285 -297 81 0
-284 -285 297 81 0
-284 -285 -297 -81 0
500 501 513 81 0
500 501 -513 -81 0
500 -501 513 -81 0
500 -501 -513 81 0
-500 501 513 -81 0
-500 501 -513 81 0
-500 -501 513 81 0
-500 -501 -513 -81 0
69 70 -74 0
69 -70 74 0
-69 70 74 0
-69 -70 -74 0
285 286 -290 0
285 -286 290 0
-285 286 290 0
-285 -286 -290 0
501 502 -506 0
501 -502 506 0
-501 502 506 0
-501 -502 -506 0
70 72 -77 0
70 -72 77 0
-70 72 77 0
-70 -72 -77 0
286 288 -293 0
286 -288 293 0
-286 288 293 0
-286 -288 -293 0
502 504 -509 0
502 -504 509 0
-502 504 509 0
-502 -504 -509 0
71 72 -73 0
71 -72 73 0
-71 72 73 0
-71 -72 -73 0
287 288 -289 0
287 -288 289 0
-287 288 289 0
-287 -288 -289 0
503 504 -505 0
503 -504 505 0
-503 504 505 0
-503 -504 -505 0
73 75 -79 0
73 -75 79 0
-73 75 79 0
-73 -75 -79 0
289 291 295 75 0
289 291 -295 -75 0
289 -291 295 -75 0
289 -291 -295 75 0
-289 291 295 -75 0
-289 291 -295 75 0
-289 -291 295 75 0
-289 -291 -295 -75 0
505 507 511 75 0
505 507 -511 -75 0
505 -507 511 -75 0
505 -507 -511 75 0
-505 507 511 -75 0
-505 507 -511 75 0
-505 -507 511 75 0
-505 -507 -511 -75 0
74 75 -76 0
74 -75 76 0
-74 75 76 0
-74 -75 -76 0
290 291 292 75 76 0
290 291 292 -75 -76 0
290 291 -292 75 -76 0
290 291 -292 -75 76 0
290 -291 292 75 -76 0
290 -291 292 -75 76 0
290 -291 -292 75 76 0
290 -291 -292 -75 -76 0
-290 291 292 75 -76 0
-290 291 292 -75 76 0
-290 291 -292 75 76 0
-290 291 -292 -75 -76 0
-290 -291 292 75 76 0
-290 -291 292 -75 -76 0
-290 -291 -292 75 -76 0
-290 -291 -292 -75 76 0
506 507 508 75 76 0
506 507 508 -75 -76 0
506 507 -508 75 -76 0
506 507 -508 -75 76 0
506 -507 508 75 -76 0
506 -507 508 -75 76 0
506 -507 -508 75 76 0
506 -507 -508 -75 -76 0
-506 507 508 75 -76 0
-506 507 508 -75 76 0
-506 507 -508 75 76 0
-506 507 -508 -75 -76 0
-506 -507 508 75 76 0
-506 -507 508 -75 -76 0
-506 -507 -508 75 -76 0
-506 -507 -508 -75 76 0
76 78 -103 0
76 -78 103 0
-76 78 103 0
-76 -78 -103 0
292 294 319 76 103 0
292 294 319 -76 -103 0
292 294 -319 76 -103 0
292 294 -319 -76 103 0
292 -294 319 76 -103 0
292 -294 319 -76 103 0
292 -294 -319 76 103 0
292 -294 -319 -76 -103 0
-292 294 319 76 -103 0
-292 294 319 -76 103 0
-292 294 -319 76 103 0
-292 294 -319 -76 -103 0
-292 -294 319 76 103 0
-292 -294 319 -76 -103 0
-292 -294 -319 76 -103 0
-292 -294 -319 -76 103 0
508 510 535 76 103 0
508 510 535 -76 -103 0
508 510 -535 76 -103 0
508 510 -535 -76 103 0
508 -510 535 76 -103 0
508 -510 535 -76 103 0
508 -510 -535 76 103 0
508 -510 -535 -76 -103 0
-508 510 535 76 -103 0
-508 510 535 -76 103 0
-508 510 -535 76 103 0
-508 510 -535 -76 -103 0
-508 -510 535 76 103 0
-508 -510 535 -76 -103 0
-508 -510 -535 76 -103 0
-508 -510 -535 -76 103 0
77 78 -80 0
77 -78 80 0
-77 78 80 0
-77 -78 -80 0
293 294 -296 0
293 -294 296 0
-293 294 296 0
-293 -294 -296 0
509 510 -512 0
509 -510 512 0
-509 510 512 0
-509 -510 -512 0
79 80 -82 0
79 -80 82 0
-79 80 82 0
-79 -80 -82 0
295 296 -298 0
295 -296 298 0
-295 296 298 0
-295 -296 -298 0
511 512 -514 0
511 -512 514 0
-511 512 514 0
-511 -512 -514 0
81 82 -84 0
81 -82 84 0
-81 82 84 0
-81 -82 -84 0
297 298 300 81 84 0
297 298 300 -81 -84 0
297 298 -300 81 -84 0
297 298 -300 -81 84 0
297 -298 300 81 -84 0
297 -298 300 -81 84 0
297 -298 -300 81 84 0
297 -298 -300 -81 -84 0
-297 298 300 81 -84 0
-297 298 300 -81 84 0
-297 298 -300 81 84 0
-297 298 -300 -81 -84 0
-297 -298 300 81 84 0
-297 -298 300 -81 -84 0
-297 -298 -300 81 -84 0
-297 -298 -300 -81 84 0
513 514 516 81 84 0
513 514 516 -81 -84 0
513 514 -516 81 -84 0
513 514 -516 -81 84 0
513 -514 516 81 -84 0
513 -514 516 -81 84 0
513 -514 -516 81 84 0
513 -514 -516 -81 -84 0
-513 514 516 81 -84 0
-513 514 516 -81 84 0
-513 514 -516 81 84 0
-513 514 -516 -81 -84 0
-513 -514 516 81 84 0
-513 -514 516 -81 -84 0
-513 -514 -516 81 -84 0
-513 -514 -516 -81 84 0
83 84 -96 0
83 -84 96 0
-83 84 96 0
-83 -84 -96 0
299 300 312 -84 0
299 300 -312 84 0
299 -300 312 84 0
299 -300 -312 -84 0
-299 300 312 84 0
-299 300 -312 -84 0
-299 -300 312 -84 0
-299 -300 -312 84 0
515 516 528 -84 0
515 516 -528 84 0
515 -516 528 84 0
515 -516 -528 -84 0
-515 516 528 84 0
-515 516 -528 -84 0
-515 -516 528 -84 0
-515 -516 -528 84 0
85 87 -113 0
85 -87 113 0
-85 87 113 0
-85 -87 -113 0
301 303 329 -87 0
301 303 -329 87 0
301 -303 329 87 0
301 -303 -329 -87 0
-301 303 329 87 0
-301 303 -329 -87 0
-301 -303 329 -87 0
-301 -303 -329 87 0
517 519 545 -87 0
517 519 -545 87 0
517 -519 545 87 0
517 -519 -545 -87 0
-517 519 545 87 0
-517 519 -545 -87 0
-517 -519 545 -87 0
-517 -519 -545 87 0
86 87 -89 0
86 -87 89 0
-86 87 89 0
-86 -87 -89 0
302 303 305 -87 0
302 303 -305 87 0
302 -303 305 87 0
302 -303 -305 -87 0
-302 303 305 87 0
-302 303 -305 -87 0
-302 -303 305 -87 0
-302 -303 -305 87 0
518 519 521 -87 0
518 519 -521 87 0
518 -519 521 87 0
518 -519 -521 -87 0
-518 519 521 87 0
-518 519 -521 -87 0
-518 -519 521 -87 0
-518 -519 -521 87 0
88 89 -91 0
88 -89 91 0
-88 89 91 0
-88 -89 -91 0
304 305 307 -91 0
304 305 -307 91 0
304 -305 307 91 0
304 -305 -307 -91 0
-304 305 307 91 0
-304 305 -307 -91 0
-304 -305 307 -91 0
-304 -305 -307 91 0
520 521 523 -91 0
520 521 -523 91 0
520 -521 523 91 0
520 -521 -523 -91 0
-520 521 523 91 0
-520 521 -523 -91 0
-520 -521 523 -91 0
-520 -521 -523 91 0
90 91 -93 0
90 -91 93 0
-90 91 93 0
-90 -91 -93 0
306 307 309 -91 0
306 307 -309 91 0
306 -307 309 91 0
306 -307 -309 -91 0
-306 307 309 91 0
-306 307 -309 -91 0
-306 -307 309 -91 0
-306 -307 -309 91 0
522 523 525 -91 0
522 523 -525 91 0
522 -523 525 91 0
522 -523 -525 -91 0
-522 523 525 91 0
-522 523 -525 -91 0
-522 -523 525 -91 0
-522 -523 -525 91 0
92 93 -95 0
92 -93 95 0
-92 93 95 0
-92 -93 -95 0
308 309 311 -95 0
308 309 -311 95 0
308 -309 311 95 0
308 -309 -311 -95 0
-308 309 311 95 0
-308 309 -311 -95 0
-308 -309 311 -95 0
-308 -309 -311 95 0
524 525 527 -95 0
524 525 -527 95 0
524 -525 527 95 0
524 -525 -527 -95 0
-524 525 527 95 0
-524 525 -527 -95 0
-524 -525 527 -95 0
-524 -525 -527 95 0
94 95 -114 0
94 -95 114 0
-94 95 114 0
-94 -95 -114 0
310 311 330 -95 0
310 311 -330 95 0
310 -311 330 95 0
310 -311 -330 -95 0
-310 311 330 95 0
-310 311 -330 -95 0
-310 -311 330 -95 0
-310 -311 -330 95 0
526 527 546 -95 0
526 527 -546 95 0
526 -527 546 95 0
526 -527 -546 -95 0
-526 527 546 95 0
-526 527 -546 -95 0
-526 -527 546 -95 0
-526 -527 -546 95 0
96 98 -144 0
96 -98 144 0
-96 98 144 0
-96 -98 -144 0
312 314 360 -144 0
312 314 -360 144 0
312 -314 360 144 0
312 -314 -360 -144 0
-312 314 360 144 0
-312 314 -360 -144 0
-312 -314 360 -144 0
-312 -314 -360 144 0
528 530 576 -144 0
528 530 -576 144 0
528 -530 576 144 0
528 -530 -576 -144 0
-528 530 576 144 0
-528 530 -576 -144 0
-528 -530 576 -144 0
-528 -530 -576 144 0
97 98 -105 0
97 -98 105 0
-97 98 105 0
-97 -98 -105 0
313 314 321 -97 0
313 314 -321 97 0
313 -314 321 97 0
313 -314 -321 -97 0
-313 314 321 97 0
-313 314 -321 -97 0
-313 -314 321 -97 0
-313 -314 -321 97 0
529 530 537 -97 0
529 530 -537 97 0
529 -530 537 97 0
529 -530 -537 -97 0
-529 530 537 97 0
-529 530 -537 -97 0
-529 -530 537 -97 0
-529 -530 -537 97 0
99 100 -102 0
99 -100 102 0
-99 100 102 0
-99 -100 -102 0
315 316 318 99 102 0
315 316 318 -99 -102 0
315 316 -318 99 -102 0
315 316 -318 -99 102 0
315 -316 318 99 -102 0
315 -316 318 -99 102 0
315 -316 -318 99 102 0
315 -316 -318 -99 -102 0
-315 316 318 99 -102 0
-315 316 318 -99 102 0
-315 316 -318 99 102 0
-315 316 -318 -99 -102 0
-315 -316 318 99 102 0
-315 -316 318 -99 -102 0
-315 -316 -318 99 -102 0
-315 -316 -318 -99 102 0
531 532 534 99 102 0
531 532 534 -99 -102 0
531 532 -534 99 -102 0
531 532 -534 -99 102 0
531 -532 534 99 -102 0
531 -532 534 -99 102 0
531 -532 -534 99 102 0
531 -532 -534 -99 -102 0
-531 532 534 99 -102 0
-531 532 534 -99 102 0
-531 532 -534 99 102 0
-531 532 -534 -99 -102 0
-531 -532 534 99 102 0
-531 -532 534 -99 -102 0
-531 -532 -534 99 -102 0
-531 -532 -534 -99 102 0
101 102 -104 0
101 -102 104 0
-101 102 104 0
-101 -102 -104 0
317 318 320 102 0
317 318 -320 -102 0
317 -318 320 -102 0
317 -318 -320 102 0
-317 318 320 -102 0
-317 318 -320 102 0
-317 -318 320 102 0
-317 -318 -320 -102 0
533 534 536 102 0
533 534 -536 -102 0
533 -534 536 -102 0
533 -534 -536 102 0
-533 534 536 -102 0
-533 534 -536 102 0
-533 -534 536 102 0
-533 -534 -536 -102 0
103 104 -106 0
103 -104 106 0
-103 104 106 0
-103 -104 -106 0
319 320 322 103 0
319 320 -322 -103 0
319 -320 322 -103 0
319 -320 -322 103 0
-319 320 322 -103 0
-319 320 -322 103 0
-319 -320 322 103 0
-319 -320 -322 -103 0
535 536 538 103 0
535 536 -538 -103 0
535 -536 538 -103 0
535 -536 -538 103 0
-535 536 538 -103 0
-535 536 -538 103 0
-535 -536 538 103 0
-535 -536 -538 -103 0
105 106 -112 0
105 -106 112 0
-105 106 112 0
-105 -106 -112 0
321 322 328 112 0
321 322 -328 -112 0
321 -322 328 -112 0
321 -322 -328 112 0
-321 322 328 -112 0
-321 322 -328 112 0
-321 -322 328 112 0
-321 -322 -328 -112 0
537 538 544 112 0
537 538 -544 -112 0
537 -538 544 -112 0
537 -538 -544 112 0
-537 538 544 -112 0
-537 538 -544 112 0
-537 -538 544 112 0
-537 -538 -544 -112 0
107 110 -139 0
107 -110 139 0
-107 110 139 0
-107 -110 -139 0
323 326 -355 0
323 -326 355 0
-323 326 355 0
-323 -326 -355 0
539 542 -571 0
539 -542 571 0
-539 542 571 0
-539 -542 -571 0
107 108 -142 0
107 -108 142 0
-107 108 142 0
-107 -108 -142 0
323 324 358 108 142 0
323 324 358 -108 -142 0
323 324 -358 108 -142 0
323 324 -358 -108 142 0
323 -324 358 108 -142 0
323 -324 358 -108 142 0
323 -324 -358 108 142 0
323 -324 -358 -108 -142 0
-323 324 358 108 -142 0
-323 324 358 -108 142 0
-323 324 -358 108 142 0
-323 324 -358 -108 -142 0
-323 -324 358 108 142 0
-323 -324 358 -108 -142 0
-323 -324 -358 108 -142 0
-323 -324 -358 -108 142 0
539 540 574 108 142 0
539 540 574 -108 -142 0
539 540 -574 108 -142 0
539 540 -574 -108 142 0
539 -540 574 108 -142 0
539 -540 574 -108 142 0
539 -540 -574 108 142 0
539 -540 -574 -108 -142 0
-539 540 574 108 -142 0
-539 540 574 -108 142 0
-539 540 -574 108 142 0
-539 540 -574 -108 -142 0
-539 -540 574 108 142 0
-539 -540 574 -108 -142 0
-539 -540 -574 108 -142 0
-539 -540 -574 -108 142 0
108 109 -152 0
108 -109 152 0
-108 109 152 0
-108 -109 -152 0
324 325 368 108 152 0
324 325 368 -108 -152 0
324 325 -368 108 -152 0
324 325 -368 -108 152 0
324 -325 368 108 -152 0
324 -325 368 -108 152 0
324 -325 -368 108 152 0
324 -325 -368 -108 -152 0
-324 325 368 108 -152 0
-324 325 368 -108 152 0
-324 325 -368 108 152 0
-324 325 -368 -108 -152 0
-324 -325 368 108 152 0
-324 -325 368 -108 -152 0
-324 -325 -368 108 -152 0
-324 -325 -368 -108 152 0
540 541 584 108 152 0
540 541 584 -108 -152 0
540 541 -584 108 -152 0
540 541 -584 -108 152 0
540 -541 584 108 -152 0
540 -541 584 -108 152 0
540 -541 -584 108 152 0
540 -541 -584 -108 -152 0
-540 541 584 108 -152 0
-540 541 584 -108 152 0
-540 541 -584 108 152 0
-540 541 -584 -108 -152 0
-540 -541 584 108 152 0
-540 -541 584 -108 -152 0
-540 -541 -584 108 -152 0
-540 -541 -584 -108 152 0
109 111 -140 0
109 -111 140 0
-109 111 140 0
-109 -111 -140 0
325 327 356 111 140 0
325 327 356 -111 -140 0
325 327 -356 111 -140 0
325 327 -356 -111 140 0
325 -327 356 111 -140 0
325 -327 356 -111 140 0
325 -327 -356 111 140 0
325 -327 -356 -111 -140 0
-325 327 356 111 -140 0
-325 327 356 -111 140 0
-325 327 -356 111 140 0
-325 327 -356 -111 -140 0
-325 -327 356 111 140 0
-325 -327 356 -111 -140 0
-325 -327 -356 111 -140 0
-325 -327 -356 -111 140 0
541 543 572 111 140 0
541 543 572 -111 -140 0
541 543 -572 111 -140 0
541 543 -572 -111 140 0
541 -543 572 111 -140 0
541 -543 572 -111 140 0
541 -543 -572 111 140 0
541 -543 -572 -111 -140 0
-541 543 572 111 -140 0
-541 543 572 -111 140 0
-541 543 -572 111 140 0
-541 543 -572 -111 -140 0
-541 -543 572 111 140 0
-541 -543 572 -111 -140 0
-541 -543 -572 111 -140 0
-541 -543 -572 -111 140 0
110 111 -148 0
110 -111 148 0
-110 111 148 0
-110 -111 -148 0
326 327 364 -111 0
326 327 -364 111 0
326 -327 364 111 0
326 -327 -364 -111 0
-326 327 364 111 0
-326 327 -364 -111 0
-326 -327 364 -111 0
-326 -327 -364 111 0
542 543 580 -111 0
542 543 -580 111 0
542 -543 580 111 0
542 -543 -580 -111 0
-542 543 580 111 0
-542 543 -580 -111 0
-542 -543 580 -111 0
-542 -543 -580 111 0
112 117 -137 0
112 -117 137 0
-112 117 137 0
-112 -117 -137 0
328 333 353 112 117 0
328 333 353 -112 -117 0
328 333 -353 112 -117 0
328 333 -353 -112 117 0
328 -333 353 112 -117 0
328 -333 353 -112 117 0
328 -333 -353 112 117 0
328 -333 -353 -112 -117 0
-328 333 353 112 -117 0
-328 333 353 -112 117 0
-328 333 -353 112 117 0
-328 333 -353 -112 -117 0
-328 -333 353 112 117 0
-328 -333 353 -112 -117 0
-328 -333 -353 112 -117 0
-328 -333 -353 -112 117 0
544 549 569 112 117 0
544 549 569 -112 -117 0
544 549 -569 112 -117 0
544 549 -569 -112 117 0
544 -549 569 112 -117 0
544 -549 569 -112 117 0
544 -549 -569 112 117 0
544 -549 -569 -112 -117 0
-544 549 569 112 -117 0
-544 549 569 -112 117 0
-544 549 -569 112 117 0
-544 549 -569 -112 -117 0
-544 -549 569 112 117 0
-544 -549 569 -112 -117 0
-544 -549 -569 112 -117 0
-544 -549 -569 -112 117 0
113 115 -119 0
113 -115 119 0
-113 115 119 0
-113 -115 -119 0
329 331 335 -119 0
329 331 -335 119 0
329 -331 335 119 0
329 -331 -335 -119 0
-329 331 335 119 0
-329 331 -335 -119 0
-329 -331 335 -119 0
-329 -331 -335 119 0
545 547 551 -119 0
545 547 -551 119 0
545 -547 551 119 0
545 -547 -551 -119 0
-545 547 551 119 0
-545 547 -551 -119 0
-545 -547 551 -119 0
-545 -547 -551 119 0
114 115 -116 0
114 -115 116 0
-114 115 116 0
-114 -115 -116 0
330 331 332 116 0
330 331 -332 -116 0
330 -331 332 -116 0
330 -331 -332 116 0
-330 331 332 -116 0
-330 331 -332 116 0
-330 -331 332 116 0
-330 -331 -332 -116 0
546 547 548 116 0
546 547 -548 -116 0
546 -547 548 -116 0
546 -547 -548 116 0
-546 547 548 -116 0
-546 547 -548 116 0
-546 -547 548 116 0
-546 -547 -548 -116 0
116 118 -121 0
116 -118 121 0
-116 118 121 0
-116 -118 -121 0
332 334 337 116 0
332 334 -337 -116 0
332 -334 337 -116 0
332 -334 -337 116 0
-332 334 337 -116 0
-332 334 -337 116 0
-332 -334 337 116 0
-332 -334 -337 -116 0
548 550 553 116 0
548 550 -553 -116 0
548 -550 553 -116 0
548 -550 -553 116 0
-548 550 553 -116 0
-548 550 -553 116 0
-548 -550 553 116 0
-548 -550 -553 -116 0
117 118 -162 0
117 -118 162 0
-117 118 162 0
-117 -118 -162 0
333 334 378 -117 0
333 334 -378 117 0
333 -334 378 117 0
333 -334 -378 -117 0
-333 334 378 117 0
-333 334 -378 -117 0
-333 -334 378 -117 0
-333 -334 -378 117 0
549 550 594 -117 0
549 550 -594 117 0
549 -550 594 117 0
549 -550 -594 -117 0
-549 550 594 117 0
-549 550 -594 -117 0
-549 -550 594 -117 0
-549 -550 -594 117 0
120 146 -164 0
120 -146 164 0
-120 146 164 0
-120 -146 -164 0
336 362 380 146 164 0
336 362 380 -146 -164 0
336 362 -380 146 -164 0
336 362 -380 -146 164 0
336 -362 380 146 -164 0
336 -362 380 -146 164 0
336 -362 -380 146 164 0
336 -362 -380 -146 -164 0
-336 362 380 146 -164 0
-336 362 380 -146 164 0
-336 362 -380 146 164 0
-336 362 -380 -146 -164 0
-336 -362 380 146 164 0
-336 -362 380 -146 -164 0
-336 -362 -380 146 -164 0
-336 -362 -380 -146 164 0
552 578 596 146 164 0
552 578 596 -146 -164 0
552 578 -596 146 -164 0
552 578 -596 -146 164 0
552 -578 596 146 -164 0
552 -578 596 -146 164 0
552 -578 -596 146 164 0
552 -578 -596 -146 -164 0
-552 578 596 146 -164 0
-552 578 596 -146 164 0
-552 578 -596 146 164 0
-552 578 -596 -146 -164 0
-552 -578 596 146 164 0
-552 -578 596 -146 -164 0
-552 -578 -596 146 -164 0
-552 -578 -596 -146 164 0
119 120 -122 0
119 -120 122 0
-119 120 122 0
-119 -120 -122 0
335 336 338 119 122 0
335 336 338 -119 -122 0
335 336 -338 119 -122 0
335 336 -338 -119 122 0
335 -336 338 119 -122 0
335 -336 338 -119 122 0
335 -336 -338 119 122 0
335 -336 -338 -119 -122 0
-335 336 338 119 -122 0
-335 336 338 -119 122 0
-335 336 -338 119 122 0
-335 336 -338 -119 -122 0
-335 -336 338 119 122 0
-335 -336 338 -119 -122 0
-335 -336 -338 119 -122 0
-335 -336 -338 -119 122 0
551 552 554 119 122 0
551 552 554 -119 -122 0
551 552 -554 119 -122 0
551 552 -554 -119 122 0
551 -552 554 119 -122 0
551 -552 554 -119 122 0
551 -552 -554 119 122 0
551 -552 -554 -119 -122 0
-551 552 554 119 -122 0
-551 552 554 -119 122 0
-551 552 -554 119 122 0
-551 552 -554 -119 -122 0
-551 -552 554 119 122 0
-551 -552 554 -119 -122 0
-551 -552 -554 119 -122 0
-551 -552 -554 -119 122 0
121 122 -123 0
121 -122 123 0
-121 122 123 0
-121 -122 -123 0
337 338 339 122 0
337 338 -339 -122 0
337 -338 339 -122 0
337 -338 -339 122 0
-337 338 339 -122 0
-337 338 -339 122 0
-337 -338 339 122 0
-337 -338 -339 -122 0
553 554 555 122 0
553 554 -555 -122 0
553 -554 555 -122 0
553 -554 -555 122 0
-553 554 555 -122 0
-553 554 -555 122 0
-553 -554 555 122 0
-553 -554 -555 -122 0
123 124 -135 0
123 -124 135 0
-123 124 135 0
-123 -124 -135 0
339 340 351 124 0
339 340 -351 -124 0
339 -340 351 -124 0
339 -340 -351 124 0
-339 340 351 -124 0
-339 340 -351 124 0
-339 -340 351 124 0
-339 -340 -351 -124 0
555 556 567 124 0
555 556 -567 -124 0
555 -556 567 -124 0
555 -556 -567 124 0
-555 556 567 -124 0
-555 556 -567 124 0
-555 -556 567 124 0
-555 -556 -567 -124 0
124 125 -128 0
124 -125 128 0
-124 125 128 0
-124 -125 -128 0
340 341 344 124 125 0
340 341 344 -124 -125 0
340 341 -344 124 -125 0
340 341 -344 -124 125 0
340 -341 344 124 -125 0
340 -341 344 -124 125 0
340 -341 -344 124 125 0
340 -341 -344 -124 -125 0
-340 341 344 124 -125 0
-340 341 344 -124 125 0
-340 341 -344 124 125 0
-340 341 -344 -124 -125 0
-340 -341 344 124 125 0
-340 -341 344 -124 -125 0
-340 -341 -344 124 -125 0
-340 -341 -344 -124 125 0
556 557 560 124 125 0
556 557 560 -124 -125 0
556 557 -560 124 -125 0
556 557 -560 -124 125 0
556 -557 560 124 -125 0
556 -557 560 -124 125 0
556 -557 -560 124 125 0
556 -557 -560 -124 -125 0
-556 557 560 124 -125 0
-556 557 560 -124 125 0
-556 557 -560 124 125 0
-556 557 -560 -124 -125 0
-556 -557 560 124 125 0
-556 -557 560 -124 -125 0
-556 -557 -560 124 -125 0
-556 -557 -560 -124 125 0
125 126 -131 0
125 -126 131 0
-125 126 131 0
-125 -126 -131 0
341 342 347 -125 0
341 342 -347 125 0
341 -342 347 125 0
341 -342 -347 -125 0
-341 342 347 125 0
-341 342 -347 -125 0
-341 -342 347 -125 0
-341 -342 -347 125 0
557 558 563 -125 0
557 558 -563 125 0
557 -558 563 125 0
557 -558 -563 -125 0
-557 558 563 125 0
-557 558 -563 -125 0
-557 -558 563 -125 0
-557 -558 -563 125 0
126 127 -154 0
126 -127 154 0
-126 127 154 0
-126 -127 -154 0
342 343 370 154 0
342 343 -370 -154 0
342 -343 370 -154 0
342 -343 -370 154 0
-342 343 370 -154 0
-342 343 -370 154 0
-342 -343 370 154 0
-342 -343 -370 -154 0
558 559 586 154 0
558 559 -586 -154 0
558 -559 586 -154 0
558 -559 -586 154 0
-558 559 586 -154 0
-558 559 -586 154 0
-558 -559 586 154 0
-558 -559 -586 -154 0
127 129 -133 0
127 -129 133 0
-127 129 133 0
-127 -129 -133 0
343 345 349 -133 0
343 345 -349 133 0
343 -345 349 133 0
343 -345 -349 -133 0
-343 345 349 133 0
-343 345 -349 -133 0
-343 -345 349 -133 0
-343 -345 -349 133 0
559 561 565 -133 0
559 561 -565 133 0
559 -561 565 133 0
559 -561 -565 -133 0
-559 561 565 133 0
-559 561 -565 -133 0
-559 -561 565 -133 0
-559 -561 -565 133 0
128 129 -130 0
128 -129 130 0
-128 129 130 0
-128 -129 -130 0
344 345 -346 0
344 -345 346 0
-344 345 346 0
-344 -345 -346 0
560 561 -562 0
560 -561 562 0
-560 561 562 0
-560 -561 -562 0
130 132 -156 0
130 -132 156 0
-130 132 156 0
-130 -132 -156 0
346 348 372 156 0
346 348 -372 -156 0
346 -348 372 -156 0
346 -348 -372 156 0
-346 348 372 -156 0
-346 348 -372 156 0
-346 -348 372 156 0
-346 -348 -372 -156 0
562 564 588 156 0
562 564 -588 -156 0
562 -564 588 -156 0
562 -564 -588 156 0
-562 564 588 -156 0
-562 564 -588 156 0
-562 -564 588 156 0
-562 -564 -588 -156 0
131 132 -134 0
131 -132 134 0
-131 132 134 0
-131 -132 -134 0
347 348 -350 0
347 -348 350 0
-347 348 350 0
-347 -348 -350 0
563 564 -566 0
563 -564 566 0
-563 564 566 0
-563 -564 -566 0
133 134 -136 0
133 -134 136 0
-133 134 136 0
-133 -134 -136 0
349 350 352 133 136 0
349 350 352 -133 -136 0
349 350 -352 133 -136 0
349 350 -352 -133 136 0
349 -350 352 133 -136 0
349 -350 352 -133 136 0
349 -350 -352 133 136 0
349 -350 -352 -133 -136 0
-349 350 352 133 -136 0
-349 350 352 -133 136 0
-349 350 -352 133 136 0
-349 350 -352 -133 -136 0
-349 -350 352 133 136 0
-349 -350 352 -133 -136 0
-349 -350 -352 133 -136 0
-349 -350 -352 -133 136 0
565 566 568 133 136 0
565 566 568 -133 -136 0
565 566 -568 133 -136 0
565 566 -568 -133 136 0
565 -566 568 133 -136 0
565 -566 568 -133 136 0
565 -566 -568 133 136 0
565 -566 -568 -133 -136 0
-565 566 568 133 -136 0
-565 566 568 -133 136 0
-565 566 -568 133 136 0
-565 566 -568 -133 -136 0
-565 -566 568 133 136 0
-565 -566 568 -133 -136 0
-565 -566 -568 133 -136 0
-565 -566 -568 -133 136 0
135 136 -138 0
135 -136 138 0
-135 136 138 0
-135 -136 -138 0
351 352 354 136 0
351 352 -354 -136 0
351 -352 354 -136 0
351 -352 -354 136 0
-351 352 354 -136 0
-351 352 -354 136 0
-351 -352 354 136 0
-351 -352 -354 -136 0
567 568 570 136 0
567 568 -570 -136 0
567 -568 570 -136 0
567 -568 -570 136 0
-567 568 570 -136 0
-567 568 -570 136 0
-567 -568 570 136 0
-567 -568 -570 -136 0
137 138 -149 0
137 -138 149 0
-137 138 149 0
-137 -138 -149 0
353 354 -365 0
353 -354 365 0
-353 354 365 0
-353 -354 -365 0
569 570 -581 0
569 -570 581 0
-569 570 581 0
-569 -570 -581 0
139 141 -158 0
139 -141 158 0
-139 141 158 0
-139 -141 -158 0
355 357 374 -158 0
355 357 -374 158 0
355 -357 374 158 0
355 -357 -374 -158 0
-355 357 374 158 0
-355 357 -374 -158 0
-355 -357 374 -158 0
-355 -357 -374 158 0
571 573 590 -158 0
571 573 -590 158 0
571 -573 590 158 0
571 -573 -590 -158 0
-571 573 590 158 0
-571 573 -590 -158 0
-571 -573 590 -158 0
-571 -573 -590 158 0
140 141 -143 0
140 -141 143 0
-140 141 143 0
-140 -141 -143 0
356 357 359 140 0
356 357 -359 -140 0
356 -357 359 -140 0
356 -357 -359 140 0
-356 357 359 -140 0
-356 357 -359 140 0
-356 -357 359 140 0
-356 -357 -359 -140 0
572 573 575 140 0
572 573 -575 -140 0
572 -573 575 -140 0
572 -573 -575 140 0
-572 573 575 -140 0
-572 573 -575 140 0
-572 -573 575 140 0
-572 -573 -575 -140 0
142 143 -145 0
142 -143 145 0
-142 143 145 0
-142 -143 -145 0
358 359 361 142 0
358 359 -361 -142 0
358 -359 361 -142 0
358 -359 -361 142 0
-358 359 361 -142 0
-358 359 -361 142 0
-358 -359 361 142 0
-358 -359 -361 -142 0
574 575 577 142 0
574 575 -577 -142 0
574 -575 577 -142 0
574 -575 -577 142 0
-574 575 577 -142 0
-574 575 -577 142 0
-574 -575 577 142 0
-574 -575 -577 -142 0
144 145 -147 0
144 -145 147 0
-144 145 147 0
-144 -145 -147 0
360 361 363 -144 0
360 361 -363 144 0
360 -361 363 144 0
360 -361 -363 -144 0
-360 361 363 144 0
-360 361 -363 -144 0
-360 -361 363 -144 0
-360 -361 -363 144 0
576 577 579 -144 0
576 577 -579 144 0
576 -577 579 144 0
576 -577 -579 -144 0
-576 577 579 144 0
-576 577 -579 -144 0
-576 -577 579 -144 0
-576 -577 -579 144 0
146 147 -209 0
146 -147 209 0
-146 147 209 0
-146 -147 -209 0
362 363 425 146 0
362 363 -425 -146 0
362 -363 425 -146 0
362 -363 -425 146 0
-362 363 425 -146 0
-362 363 -425 146 0
-362 -363 425 146 0
-362 -363 -425 -146 0
578 579 641 146 0
578 579 -641 -146 0
578 -579 641 -146 0
578 -579 -641 146 0
-578 579 641 -146 0
-578 579 -641 146 0
-578 -579 641 146 0
-578 -579 -641 -146 0
148 150 -212 0
148 -150 212 0
-148 150 212 0
-148 -150 -212 0
364 366 428 212 0
364 366 -428 -212 0
364 -366 428 -212 0
364 -366 -428 212 0
-364 366 428 -212 0
-364 366 -428 212 0
-364 -366 428 212 0
-364 -366 -428 -212 0
580 582 644 212 0
580 582 -644 -212 0
580 -582 644 -212 0
580 -582 -644 212 0
-580 582 644 -212 0
-580 582 -644 212 0
-580 -582 644 212 0
-580 -582 -644 -212 0
149 150 -151 0
149 -150 151 0
-149 150 151 0
-149 -150 -151 0
365 366 -367 0
365 -366 367 0
-365 366 367 0
-365 -366 -367 0
581 582 -583 0
581 -582 583 0
-581 582 583 0
-581 -582 -583 0
151 153 -159 0
151 -153 159 0
-151 153 159 0
-151 -153 -159 0
367 369 -375 0
367 -369 375 0
-367 369 375 0
-367 -369 -375 0
583 585 -591 0
583 -585 591 0
-583 585 591 0
-583 -585 -591 0
152 153 -155 0
152 -153 155 0
-152 153 155 0
-152 -153 -155 0
368 369 371 152 0
368 369 -371 -152 0
368 -369 371 -152 0
368 -369 -371 152 0
-368 369 371 -152 0
-368 369 -371 152 0
-368 -369 371 152 0
-368 -369 -371 -152 0
584 585 587 152 0
584 585 -587 -152 0
584 -585 587 -152 0
584 -585 -587 152 0
-584 585 587 -152 0
-584 585 -587 152 0
-584 -585 587 152 0
-584 -585 -587 -152 0
154 155 -157 0
154 -155 157 0
-154 155 157 0
-154 -155 -157 0
370 371 373 154 0
370 371 -373 -154 0
370 -371 373 -154 0
370 -371 -373 154 0
-370 371 373 -154 0
-370 371 -373 154 0
-370 -371 373 154 0
-370 -371 -373 -154 0
586 587 589 154 0
586 587 -589 -154 0
586 -587 589 -154 0
586 -587 -589 154 0
-586 587 589 -154 0
-586 587 -589 154 0
-586 -587 589 154 0
-586 -587 -589 -154 0
156 157 -160 0
156 -157 160 0
-156 157 160 0
-156 -157 -160 0
372 373 376 156 0
372 373 -376 -156 0
372 -373 376 -156 0
372 -373 -376 156 0
-372 373 376 -156 0
-372 373 -376 156 0
-372 -373 376 156 0
-372 -373 -376 -156 0
588 589 592 156 0
588 589 -592 -156 0
588 -589 592 -156 0
588 -589 -592 156 0
-588 589 592 -156 0
-588 589 -592 156 0
-588 -589 592 156 0
-588 -589 -592 -156 0
158 159 -160 0
158 -159 160 0
-158 159 160 0
-158 -159 -160 0
374 375 376 -158 0
374 375 -376 158 0
374 -375 376 158 0
374 -375 -376 -158 0
-374 375 376 158 0
-374 375 -376 -158 0
-374 -375 376 -158 0
-374 -375 -376 158 0
590 591 592 -158 0
590 591 -592 158 0
590 -591 592 158 0
590 -591 -592 -158 0
-590 591 592 158 0
-590 591 -592 -158 0
-590 -591 592 -158 0
-590 -591 -592 158 0
161 165 -193 0
161 -165 193 0
-161 165 193 0
-161 -165 -193 0
377 381 409 -161 0
377 381 -409 161 0
377 -381 409 161 0
377 -381 -409 -161 0
-377 381 409 161 0
-377 381 -409 -161 0
-377 -381 409 -161 0
-377 -381 -409 161 0
593 597 625 -161 0
593 597 -625 161 0
593 -597 625 161 0
593 -597 -625 -161 0
-593 597 625 161 0
-593 597 -625 -161 0
-593 -597 625 -161 0
-593 -597 -625 161 0
161 163 -196 0
161 -163 196 0
-161 163 196 0
-161 -163 -196 0
377 379 412 161 196 0
377 379 412 -161 -196 0
377 379 -412 161 -196 0
377 379 -412 -161 196 0
377 -379 412 161 -196 0
377 -379 412 -161 196 0
377 -379 -412 161 196 0
377 -379 -412 -161 -196 0
-377 379 412 161 -196 0
-377 379 412 -161 196 0
-377 379 -412 161 196 0
-377 379 -412 -161 -196 0
-377 -379 412 161 196 0
-377 -379 412 -161 -196 0
-377 -379 -412 161 -196 0
-377 -379 -412 -161 196 0
593 595 628 161 196 0
593 595 628 -161 -196 0
593 595 -628 161 -196 0
593 595 -628 -161 196 0
593 -595 628 161 -196 0
593 -595 628 -161 196 0
593 -595 -628 161 196 0
593 -595 -628 -161 -196 0
-593 595 628 161 -196 0
-593 595 628 -161 196 0
-593 595 -628 161 196 0
-593 595 -628 -161 -196 0
-593 -595 628 161 196 0
-593 -595 628 -161 -196 0
-593 -595 -628 161 -196 0
-593 -595 -628 -161 196 0
162 163 -207 0
162 -163 207 0
-162 163 207 0
-162 -163 -207 0
378 379 -423 0
378 -379 423 0
-378 379 423 0
-378 -379 -423 0
594 595 -639 0
594 -595 639 0
-594 595 639 0
-594 -595 -639 0
164 166 -194 0
164 -166 194 0
-164 166 194 0
-164 -166 -194 0
380 382 410 -164 0
380 382 -410 164 0
380 -382 410 164 0
380 -382 -410 -164 0
-380 382 410 164 0
-380 382 -410 -164 0
-380 -382 410 -164 0
-380 -382 -410 164 0
596 598 626 -164 0
596 598 -626 164 0
596 -598 626 164 0
596 -598 -626 -164 0
-596 598 626 164 0
-596 598 -626 -164 0
-596 -598 626 -164 0
-596 -598 -626 164 0
165 166 -202 0
165 -166 202 0
-165 166 202 0
-165 -166 -202 0
381 382 418 202 0
381 382 -418 -202 0
381 -382 418 -202 0
381 -382 -418 202 0
-381 382 418 -202 0
-381 382 -418 202 0
-381 -382 418 202 0
-381 -382 -418 -202 0
597 598 634 202 0
597 598 -634 -202 0
597 -598 634 -202 0
597 -598 -634 202 0
-597 598 634 -202 0
-597 598 -634 202 0
-597 -598 634 202 0
-597 -598 -634 -202 0
167 170 -191 0
167 -170 191 0
-167 170 191 0
-167 -170 -191 0
383 386 407 191 0
383 386 -407 -191 0
383 -386 407 -191 0
383 -386 -407 191 0
-383 386 407 -191 0
-383 386 -407 191 0
-383 -386 407 191 0
-383 -386 -407 -191 0
599 602 623 191 0
599 602 -623 -191 0
599 -602 623 -191 0
599 -602 -623 191 0
-599 602 623 -191 0
-599 602 -623 191 0
-599 -602 623 191 0
-599 -602 -623 -191 0
167 168 -173 0
167 -168 173 0
-167 168 173 0
-167 -168 -173 0
383 384 389 173 0
383 384 -389 -173 0
383 -384 389 -173 0
383 -384 -389 173 0
-383 384 389 -173 0
-383 384 -389 173 0
-383 -384 389 173 0
-383 -384 -389 -173 0
599 600 605 173 0
599 600 -605 -173 0
599 -600 605 -173 0
599 -600 -605 173 0
-599 600 605 -173 0
-599 600 -605 173 0
-599 -600 605 173 0
-599 -600 -605 -173 0
168 169 -198 0
168 -169 198 0
-168 169 198 0
-168 -169 -198 0
384 385 414 198 0
384 385 -414 -198 0
384 -385 414 -198 0
384 -385 -414 198 0
-384 385 414 -198 0
-384 385 -414 198 0
-384 -385 414 198 0
-384 -385 -414 -198 0
600 601 630 198 0
600 601 -630 -198 0
600 -601 630 -198 0
600 -601 -630 198 0
-600 601 630 -198 0
-600 601 -630 198 0
-600 -601 630 198 0
-600 -601 -630 -198 0
169 171 -175 0
169 -171 175 0
-169 171 175 0
-169 -171 -175 0
385 387 391 -171 0
385 387 -391 171 0
385 -387 391 171 0
385 -387 -391 -171 0
-385 387 391 171 0
-385 387 -391 -171 0
-385 -387 391 -171 0
-385 -387 -391 171 0
601 603 607 -171 0
601 603 -607 171 0
601 -603 607 171 0
601 -603 -607 -171 0
-601 603 607 171 0
-601 603 -607 -171 0
-601 -603 607 -171 0
-601 -603 -607 171 0
170 171 -172 0
170 -171 172 0
-170 171 172 0
-170 -171 -172 0
386 387 388 -171 0
386 387 -388 171 0
386 -387 388 171 0
386 -387 -388 -171 0
-386 387 388 171 0
-386 387 -388 -171 0
-386 -387 388 -171 0
-386 -387 -388 171 0
602 603 604 -171 0
602 603 -604 171 0
602 -603 604 171 0
602 -603 -604 -171 0
-602 603 604 171 0
-602 603 -604 -171 0
-602 -603 604 -171 0
-602 -603 -604 171 0
172 174 -200 0
172 -174 200 0
-172 174 200 0
-172 -174 -200 0
388 390 -416 0
388 -390 416 0
-388 390 416 0
-388 -390 -416 0
604 606 -632 0
604 -606 632 0
-604 606 632 0
-604 -606 -632 0
173 174 -176 0
173 -174 176 0
-173 174 176 0
-173 -174 -176 0
389 390 392 173 176 0
389 390 392 -173 -176 0
389 390 -392 173 -176 0
389 390 -392 -173 176 0
389 -390 392 173 -176 0
389 -390 392 -173 176 0
389 -390 -392 173 176 0
389 -390 -392 -173 -176 0
-389 390 392 173 -176 0
-389 390 392 -173 176 0
-389 390 -392 173 176 0
-389 390 -392 -173 -176 0
-389 -390 392 173 176 0
-389 -390 392 -173 -176 0
-389 -390 -392 173 -176 0
-389 -390 -392 -173 176 0
605 606 608 173 176 0
605 606 608 -173 -176 0
605 606 -608 173 -176 0
605 606 -608 -173 176 0
605 -606 608 173 -176 0
605 -606 608 -173 176 0
605 -606 -608 173 176 0
605 -606 -608 -173 -176 0
-605 606 608 173 -176 0
-605 606 608 -173 176 0
-605 606 -608 173 176 0
-605 606 -608 -173 -176 0
-605 -606 608 173 176 0
-605 -606 608 -173 -176 0
-605 -606 -608 173 -176 0
-605 -606 -608 -173 176 0
175 176 -177 0
175 -176 177 0
-175 176 177 0
-175 -176 -177 0
391 392 393 -176 0
391 392 -393 176 0
391 -392 393 176 0
391 -392 -393 -176 0
-391 392 393 176 0
-391 392 -393 -176 0
-391 -392 393 -176 0
-391 -392 -393 176 0
607 608 609 -176 0
607 608 -609 176 0
607 -608 609 176 0
607 -608 -609 -176 0
-607 608 609 176 0
-607 608 -609 -176 0
-607 -608 609 -176 0
-607 -608 -609 176 0
177 178 -189 0
177 -178 189 0
-177 178 189 0
-177 -178 -189 0
393 394 405 -189 0
393 394 -405 189 0
393 -394 405 189 0
393 -394 -405 -189 0
-393 394 405 189 0
-393 394 -405 -189 0
-393 -394 405 -189 0
-393 -394 -405 189 0
609 610 621 -189 0
609 610 -621 189 0
609 -610 621 189 0
609 -610 -621 -189 0
-609 610 621 189 0
-609 610 -621 -189 0
-609 -610 621 -189 0
-609 -610 -621 189 0
178 179 -182 0
178 -179 182 0
-178 179 182 0
-178 -179 -182 0
394 395 398 182 0
394 395 -398 -182 0
394 -395 398 -182 0
394 -395 -398 182 0
-394 395 398 -182 0
-394 395 -398 182 0
-394 -395 398 182 0
-394 -395 -398 -182 0
610 611 614 182 0
610 611 -614 -182 0
610 -611 614 -182 0
610 -611 -614 182 0
-610 611 614 -182 0
-610 611 -614 182 0
-610 -611 614 182 0
-610 -611 -614 -182 0
179 180 -185 0
179 -180 185 0
-179 180 185 0
-179 -180 -185 0
395 396 401 180 0
395 396 -401 -180 0
395 -396 401 -180 0
395 -396 -401 180 0
-395 396 401 -180 0
-395 396 -401 180 0
-395 -396 401 180 0
-395 -396 -401 -180 0
611 612 617 180 0
611 612 -617 -180 0
611 -612 617 -180 0
611 -612 -617 180 0
-611 612 617 -180 0
-611 612 -617 180 0
-611 -612 617 180 0
-611 -612 -617 -180 0
180 181 -210 0
180 -181 210 0
-180 181 210 0
-180 -181 -210 0
396 397 426 180 0
396 397 -426 -180 0
396 -397 426 -180 0
396 -397 -426 180 0
-396 397 426 -180 0
-396 397 -426 180 0
-396 -397 426 180 0
-396 -397 -426 -180 0
612 613 642 180 0
612 613 -642 -180 0
612 -613 642 -180 0
612 -613 -642 180 0
-612 613 642 -180 0
-612 613 -642 180 0
-612 -613 642 180 0
-612 -613 -642 -180 0
181 183 -187 0
181 -183 187 0
-181 183 187 0
-181 -183 -187 0
397 399 403 187 0
397 399 -403 -187 0
397 -399 403 -187 0
397 -399 -403 187 0
-397 399 403 -187 0
-397 399 -403 187 0
-397 -399 403 187 0
-397 -399 -403 -187 0
613 615 619 187 0
613 615 -619 -187 0
613 -615 619 -187 0
613 -615 -619 187 0
-613 615 619 -187 0
-613 615 -619 187 0
-613 -615 619 187 0
-613 -615 -619 -187 0
182 183 -184 0
182 -183 184 0
-182 183 184 0
-182 -183 -184 0
398 399 400 182 0
398 399 -400 -182 0
398 -399 400 -182 0
398 -399 -400 182 0
-398 399 400 -182 0
-398 399 -400 182 0
-398 -399 400 182 0
-398 -399 -400 -182 0
614 615 616 182 0
614 615 -616 -182 0
614 -615 616 -182 0
614 -615 -616 182 0
-614 615 616 -182 0
-614 615 -616 182 0
-614 -615 616 182 0
-614 -615 -616 -182 0
184 186 -213 0
184 -186 213 0
-184 186 213 0
-184 -186 -213 0
400 402 429 186 0
400 402 -429 -186 0
400 -402 429 -186 0
400 -402 -429 186 0
-400 402 429 -186 0
-400 402 -429 186 0
-400 -402 429 186 0
-400 -402 -429 -186 0
616 618 645 186 0
616 618 -645 -186 0
616 -618 645 -186 0
616 -618 -645 186 0
-616 618 645 -186 0
-616 618 -645 186 0
-616 -618 645 186 0
-616 -618 -645 -186 0
185 186 -188 0
185 -186 188 0
-185 186 188 0
-185 -186 -188 0
401 402 404 186 0
401 402 -404 -186 0
401 -402 404 -186 0
401 -402 -404 186 0
-401 402 404 -186 0
-401 402 -404 186 0
-401 -402 404 186 0
-401 -402 -404 -186 0
617 618 620 186 0
617 618 -620 -186 0
617 -618 620 -186 0
617 -618 -620 186 0
-617 618 620 -186 0
-617 618 -620 186 0
-617 -618 620 186 0
-617 -618 -620 -186 0
187 188 -190 0
187 -188 190 0
-187 188 190 0
-187 -188 -190 0
403 404 406 187 0
403 404 -406 -187 0
403 -404 406 -187 0
403 -404 -406 187 0
-403 404 406 -187 0
-403 404 -406 187 0
-403 -404 406 187 0
-403 -404 -406 -187 0
619 620 622 187 0
619 620 -622 -187 0
619 -620 622 -187 0
619 -620 -622 187 0
-619 620 622 -187 0
-619 620 -622 187 0
-619 -620 622 187 0
-619 -620 -622 -187 0
189 190 -192 0
189 -190 192 0
-189 190 192 0
-189 -190 -192 0
405 406 408 -189 0
405 406 -408 189 0
405 -406 408 189 0
405 -406 -408 -189 0
-405 406 408 189 0
-405 406 -408 -189 0
-405 -406 408 -189 0
-405 -406 -408 189 0
621 622 624 -189 0
621 622 -624 189 0
621 -622 624 189 0
621 -622 -624 -189 0
-621 622 624 189 0
-621 622 -624 -189 0
-621 -622 624 -189 0
-621 -622 -624 189 0
191 192 -204 0
191 -192 204 0
-191 192 204 0
-191 -192 -204 0
407 408 420 191 0
407 408 -420 -191 0
407 -408 420 -191 0
407 -408 -420 191 0
-407 408 420 -191 0
-407 408 -420 191 0
-407 -408 420 191 0
-407 -408 -420 -191 0
623 624 636 191 0
623 624 -636 -191 0
623 -624 636 -191 0
623 -624 -636 191 0
-623 624 636 -191 0
-623 624 -636 191 0
-623 -624 636 191 0
-623 -624 -636 -191 0
193 195 -214 0
193 -195 214 0
-193 195 214 0
-193 -195 -214 0
409 411 430 195 0
409 411 -430 -195 0
409 -411 430 -195 0
409 -411 -430 195 0
-409 411 430 -195 0
-409 411 -430 195 0
-409 -411 430 195 0
-409 -411 -430 -195 0
625 627 646 195 0
625 627 -646 -195 0
625 -627 646 -195 0
625 -627 -646 195 0
-625 627 646 -195 0
-625 627 -646 195 0
-625 -627 646 195 0
-625 -627 -646 -195 0
194 195 -197 0
194 -195 197 0
-194 195 197 0
-194 -195 -197 0
410 411 413 195 0
410 411 -413 -195 0
410 -411 413 -195 0
410 -411 -413 195 0
-410 411 413 -195 0
-410 411 -413 195 0
-410 -411 413 195 0
-410 -411 -413 -195 0
626 627 629 195 0
626 627 -629 -195 0
626 -627 629 -195 0
626 -627 -629 195 0
-626 627 629 -195 0
-626 627 -629 195 0
-626 -627 629 195 0
-626 -627 -629 -195 0
196 197 -199 0
196 -197 199 0
-196 197 199 0
-196 -197 -199 0
412 413 415 196 0
412 413 -415 -196 0
412 -413 415 -196 0
412 -413 -415 196 0
-412 413 415 -196 0
-412 413 -415 196 0
-412 -413 415 196 0
-412 -413 -415 -196 0
628 629 631 196 0
628 629 -631 -196 0
628 -629 631 -196 0
628 -629 -631 196 0
-628 629 631 -196 0
-628 629 -631 196 0
-628 -629 631 196 0
-628 -629 -631 -196 0
198 199 -201 0
198 -199 201 0
-198 199 201 0
-198 -199 -201 0
414 415 417 198 0
414 415 -417 -198 0
414 -415 417 -198 0
414 -415 -417 198 0
-414 415 417 -198 0
-414 415 -417 198 0
-414 -415 417 198 0
-414 -415 -417 -198 0
630 631 633 198 0
630 631 -633 -198 0
630 -631 633 -198 0
630 -631 -633 198 0
-630 631 633 -198 0
-630 631 -633 198 0
-630 -631 633 198 0
-630 -631 -633 -198 0
200 201 -203 0
200 -201 203 0
-200 201 203 0
-200 -201 -203 0
416 417 419 -203 0
416 417 -419 203 0
416 -417 419 203 0
416 -417 -419 -203 0
-416 417 419 203 0
-416 417 -419 -203 0
-416 -417 419 -203 0
-416 -417 -419 203 0
632 633 635 -203 0
632 633 -635 203 0
632 -633 635 203 0
632 -633 -635 -203 0
-632 633 635 203 0
-632 633 -635 -203 0
-632 -633 635 -203 0
-632 -633 -635 203 0
202 203 -205 0
202 -203 205 0
-202 203 205 0
-202 -203 -205 0
418 419 421 202 203 0
418 419 421 -202 -203 0
418 419 -421 202 -203 0
418 419 -421 -202 203 0
418 -419 421 202 -203 0
418 -419 421 -202 203 0
418 -419 -421 202 203 0
418 -419 -421 -202 -203 0
-418 419 421 202 -203 0
-418 419 421 -202 203 0
-418 419 -421 202 203 0
-418 419 -421 -202 -203 0
-418 -419 421 202 203 0
-418 -419 421 -202 -203 0
-418 -419 -421 202 -203 0
-418 -419 -421 -202 203 0
634 635 637 202 203 0
634 635 637 -202 -203 0
634 635 -637 202 -203 0
634 635 -637 -202 203 0
634 -635 637 202 -203 0
634 -635 637 -202 203 0
634 -635 -637 202 203 0
634 -635 -637 -202 -203 0
-634 635 637 202 -203 0
-634 635 637 -202 203 0
-634 635 -637 202 203 0
-634 635 -637 -202 -203 0
-634 -635 637 202 203 0
-634 -635 637 -202 -203 0
-634 -635 -637 202 -203 0
-634 -635 -637 -202 203 0
204 205 -206 0
204 -205 206 0
-204 205 206 0
-204 -205 -206 0
420 421 -422 0
420 -421 422 0
-420 421 422 0
-420 -421 -422 0
636 637 -638 0
636 -637 638 0
-636 637 638 0
-636 -637 -638 0
206 208 -215 0
206 -208 215 0
-206 208 215 0
-206 -208 -215 0
422 424 431 -215 0
422 424 -431 215 0
422 -424 431 215 0
422 -424 -431 -215 0
-422 424 431 215 0
-422 424 -431 -215 0
-422 -424 431 -215 0
-422 -424 -431 215 0
638 640 647 -215 0
638 640 -647 215 0
638 -640 647 215 0
638 -640 -647 -215 0
-638 640 647 215 0
-638 640 -647 -215 0
-638 -640 647 -215 0
-638 -640 -647 215 0
207 208 -211 0
207 -208 211 0
-207 208 211 0
-207 -208 -211 0
423 424 427 -211 0
423 424 -427 211 0
423 -424 427 211 0
423 -424 -427 -211 0
-423 424 427 211 0
-423 424 -427 -211 0
-423 -424 427 -211 0
-423 -424 -427 211 0
639 640 643 -211 0
639 640 -643 211 0
639 -640 643 211 0
639 -640 -643 -211 0
-639 640 643 211 0
-639 640 -643 -211 0
-639 -640 643 -211 0
-639 -640 -643 211 0
209 210 -211 0
209 -210 211 0
-209 210 211 0
-209 -210 -211 0
425 426 427 -211 0
425 426 -427 211 0
425 -426 427 211 0
425 -426 -427 -211 0
-425 426 427 211 0
-425 426 -427 -211 0
-425 -426 427 -211 0
-425 -426 -427 211 0
641 642 643 -211 0
641 642 -643 211 0
641 -642 643 211 0
641 -642 -643 -211 0
-641 642 643 211 0
-641 642 -643 -211 0
-641 -642 643 -211 0
-641 -642 -643 211 0
212 213 -216 0
212 -213 216 0
-212 213 216 0
-212 -213 -216 0
428 429 432 212 0
428 429 -432 -212 0
428 -429 432 -212 0
428 -429 -432 212 0
-428 429 432 -212 0
-428 429 -432 212 0
-428 -429 432 212 0
-428 -429 -432 -212 0
644 645 648 212 0
644 645 -648 -212 0
644 -645 648 -212 0
644 -645 -648 212 0
-644 645 648 -212 0
-644 645 -648 212 0
-644 -645 648 212 0
-644 -645 -648 -212 0
214 215 -216 0
214 -215 216 0
-214 215 216 0
-214 -215 -216 0
430 431 432 -215 0
430 431 -432 215 0
430 -431 432 215 0
430 -431 -432 -215 0
-430 431 432 215 0
-430 431 -432 -215 0
-430 -431 432 -215 0
-430 -431 -432 215 0
646 647 648 -215 0
646 647 -648 215 0
646 -647 648 215 0
646 -647 -648 -215 0
-646 647 648 215 0
-646 647 -648 -215 0
-646 -647 648 -215 0
-646 -647 -648 215 0
