c fano-binary-cycle-repair-v1
c SAT iff the named normalized incidence has a repair
c switch=6 target=1 other=7
p cnf 648 3188
-1 0
-217 -433 0
-218 -434 0
-3 0
-219 -435 0
-220 -436 0
4 -220 0
4 -436 0
-221 -437 0
-6 0
-222 -438 0
-223 -439 0
-8 0
-224 -440 0
-225 -441 0
-226 -442 0
10 -226 0
10 -442 0
-227 -443 0
-228 -444 0
-229 -445 0
-13 -229 0
-13 -445 0
-230 -446 0
-14 -230 0
-14 -446 0
-231 -447 0
-232 -448 0
-233 -449 0
-234 -450 0
-18 -234 0
-18 -450 0
-235 -451 0
-236 -452 0
-237 -453 0
-22 0
-238 -454 0
-239 -455 0
-240 -456 0
-25 0
-241 -457 0
-242 -458 0
-243 -459 0
-244 -460 0
-28 -244 0
-28 -460 0
-245 -461 0
29 -245 0
29 -461 0
-246 -462 0
-31 0
-247 -463 0
-248 -464 0
-32 -248 0
-32 -464 0
-249 -465 0
-250 -466 0
-251 -467 0
-252 -468 0
-36 -252 0
-36 -468 0
-253 -469 0
-254 -470 0
-38 -254 0
-38 -470 0
-255 -471 0
-256 -472 0
-257 -473 0
-258 -474 0
-42 -258 0
-42 -474 0
-259 -475 0
-260 -476 0
-261 -477 0
-46 0
-262 -478 0
-263 -479 0
-47 -263 0
-47 -479 0
-264 -480 0
-265 -481 0
49 -265 0
49 -481 0
-266 -482 0
-51 0
-267 -483 0
-268 -484 0
-269 -485 0
-270 -486 0
54 -270 0
54 -486 0
-271 -487 0
-55 -271 0
-55 -487 0
-272 -488 0
56 -272 0
56 -488 0
-273 -489 0
-58 0
-274 -490 0
-275 -491 0
-59 -275 0
-59 -491 0
-60 0
-276 -492 0
-277 -493 0
-278 -494 0
-62 -278 0
-62 -494 0
-279 -495 0
-280 -496 0
64 -280 0
64 -496 0
-281 -497 0
-282 -498 0
66 -282 0
66 -498 0
-283 -499 0
-284 -500 0
-285 -501 0
-69 -285 0
-69 -501 0
-286 -502 0
70 -286 0
70 -502 0
-287 -503 0
-72 0
-288 -504 0
-289 -505 0
-74 0
-290 -506 0
-291 -507 0
-292 -508 0
-293 -509 0
-77 -293 0
-77 -509 0
-78 0
-294 -510 0
-295 -511 0
-79 -295 0
-79 -511 0
-296 -512 0
80 -296 0
80 -512 0
-297 -513 0
-82 0
-298 -514 0
-299 -515 0
-300 -516 0
-301 -517 0
-302 -518 0
-303 -519 0
-304 -520 0
-305 -521 0
89 -305 0
89 -521 0
-306 -522 0
90 -306 0
90 -522 0
-307 -523 0
-308 -524 0
92 -308 0
92 -524 0
-309 -525 0
-310 -526 0
-311 -527 0
-312 -528 0
96 -312 0
96 -528 0
-313 -529 0
-314 -530 0
-315 -531 0
-100 0
-316 -532 0
-317 -533 0
-318 -534 0
-319 -535 0
-320 -536 0
104 -320 0
104 -536 0
-321 -537 0
105 -321 0
105 -537 0
-322 -538 0
-107 0
-323 -539 0
-324 -540 0
-109 0
-325 -541 0
-326 -542 0
-327 -543 0
-328 -544 0
-329 -545 0
113 -329 0
113 -545 0
-330 -546 0
-114 -330 0
-114 -546 0
-331 -547 0
-332 -548 0
-333 -549 0
-334 -550 0
-335 -551 0
-120 0
-336 -552 0
-337 -553 0
121 -337 0
121 -553 0
-338 -554 0
-339 -555 0
-340 -556 0
-341 -557 0
-342 -558 0
-126 -342 0
-126 -558 0
-343 -559 0
-128 0
-344 -560 0
-345 -561 0
129 -345 0
129 -561 0
-346 -562 0
-130 -346 0
-130 -562 0
-347 -563 0
-348 -564 0
-349 -565 0
-134 0
-350 -566 0
-351 -567 0
135 -351 0
135 -567 0
-352 -568 0
-137 0
-353 -569 0
-354 -570 0
-355 -571 0
-356 -572 0
-357 -573 0
-141 -357 0
-141 -573 0
-358 -574 0
-359 -575 0
-360 -576 0
-361 -577 0
-145 -361 0
-145 -577 0
-362 -578 0
-363 -579 0
-364 -580 0
148 -364 0
148 -580 0
-365 -581 0
-366 -582 0
-151 0
-367 -583 0
-368 -584 0
-369 -585 0
-370 -586 0
-371 -587 0
155 -371 0
155 -587 0
-372 -588 0
-373 -589 0
-374 -590 0
-375 -591 0
-376 -592 0
160 -376 0
160 -592 0
-377 -593 0
-378 -594 0
-162 -378 0
-162 -594 0
-163 0
-379 -595 0
-380 -596 0
-381 -597 0
-382 -598 0
-166 -382 0
-166 -598 0
-383 -599 0
-384 -600 0
-168 -384 0
-168 -600 0
-385 -601 0
-386 -602 0
-170 -386 0
-170 -602 0
-387 -603 0
-388 -604 0
-389 -605 0
-174 0
-390 -606 0
-391 -607 0
175 -391 0
175 -607 0
-392 -608 0
-393 -609 0
-394 -610 0
178 -394 0
178 -610 0
-395 -611 0
-396 -612 0
-397 -613 0
-181 -397 0
-181 -613 0
-398 -614 0
-399 -615 0
-400 -616 0
-184 -400 0
-184 -616 0
-401 -617 0
185 -401 0
185 -617 0
-402 -618 0
-403 -619 0
-404 -620 0
-405 -621 0
-406 -622 0
190 -406 0
190 -622 0
-407 -623 0
-408 -624 0
-409 -625 0
193 -409 0
193 -625 0
-410 -626 0
-411 -627 0
-412 -628 0
-413 -629 0
197 -413 0
197 -629 0
-414 -630 0
-415 -631 0
-416 -632 0
-417 -633 0
201 -417 0
201 -633 0
-418 -634 0
-419 -635 0
-420 -636 0
-204 -420 0
-204 -636 0
-205 0
-421 -637 0
-422 -638 0
206 -422 0
206 -638 0
-423 -639 0
207 -423 0
207 -639 0
-424 -640 0
-425 -641 0
209 -425 0
209 -641 0
-426 -642 0
-427 -643 0
-428 -644 0
-429 -645 0
-430 -646 0
-431 -647 0
-432 -648 0
-216 -432 0
-216 -648 0
1 4 -32 0
1 -4 32 0
-1 4 32 0
-1 -4 -32 0
217 220 248 4 32 0
217 220 248 -4 -32 0
217 220 -248 4 -32 0
217 220 -248 -4 32 0
217 -220 248 4 -32 0
217 -220 248 -4 32 0
217 -220 -248 4 32 0
217 -220 -248 -4 -32 0
-217 220 248 4 -32 0
-217 220 248 -4 32 0
-217 220 -248 4 32 0
-217 220 -248 -4 -32 0
-217 -220 248 4 32 0
-217 -220 248 -4 -32 0
-217 -220 -248 4 -32 0
-217 -220 -248 -4 32 0
433 436 464 4 32 0
433 436 464 -4 -32 0
433 436 -464 4 -32 0
433 436 -464 -4 32 0
433 -436 464 4 -32 0
433 -436 464 -4 32 0
433 -436 -464 4 32 0
433 -436 -464 -4 -32 0
-433 436 464 4 -32 0
-433 436 464 -4 32 0
-433 436 -464 4 32 0
-433 436 -464 -4 -32 0
-433 -436 464 4 32 0
-433 -436 464 -4 -32 0
-433 -436 -464 4 -32 0
-433 -436 -464 -4 32 0
1 2 -35 0
1 -2 35 0
-1 2 35 0
-1 -2 -35 0
217 218 -251 0
217 -218 251 0
-217 218 251 0
-217 -218 -251 0
433 434 -467 0
433 -434 467 0
-433 434 467 0
-433 -434 -467 0
2 3 -44 0
2 -3 44 0
-2 3 44 0
-2 -3 -44 0
218 219 -260 0
218 -219 260 0
-218 219 260 0
-218 -219 -260 0
434 435 -476 0
434 -435 476 0
-434 435 476 0
-434 -435 -476 0
3 5 -33 0
3 -5 33 0
-3 5 33 0
-3 -5 -33 0
219 221 -249 0
219 -221 249 0
-219 221 249 0
-219 -221 -249 0
435 437 -465 0
435 -437 465 0
-435 437 465 0
-435 -437 -465 0
4 5 -39 0
4 -5 39 0
-4 5 39 0
-4 -5 -39 0
220 221 255 4 0
220 221 -255 -4 0
220 -221 255 -4 0
220 -221 -255 4 0
-220 221 255 -4 0
-220 221 -255 4 0
-220 -221 255 4 0
-220 -221 -255 -4 0
436 437 471 4 0
436 437 -471 -4 0
436 -437 471 -4 0
436 -437 -471 4 0
-436 437 471 -4 0
-436 437 -471 4 0
-436 -437 471 4 0
-436 -437 -471 -4 0
6 9 -30 0
6 -9 30 0
-6 9 30 0
-6 -9 -30 0
222 225 -246 0
222 -225 246 0
-222 225 246 0
-222 -225 -246 0
438 441 -462 0
438 -441 462 0
-438 441 462 0
-438 -441 -462 0
6 7 -12 0
6 -7 12 0
-6 7 12 0
-6 -7 -12 0
222 223 -228 0
222 -223 228 0
-222 223 228 0
-222 -223 -228 0
438 439 -444 0
438 -439 444 0
-438 439 444 0
-438 -439 -444 0
7 8 -37 0
7 -8 37 0
-7 8 37 0
-7 -8 -37 0
223 224 -253 0
223 -224 253 0
-223 224 253 0
-223 -224 -253 0
439 440 -469 0
439 -440 469 0
-439 440 469 0
-439 -440 -469 0
8 10 -14 0
8 -10 14 0
-8 10 14 0
-8 -10 -14 0
224 226 230 10 14 0
224 226 230 -10 -14 0
224 226 -230 10 -14 0
224 226 -230 -10 14 0
224 -226 230 10 -14 0
224 -226 230 -10 14 0
224 -226 -230 10 14 0
224 -226 -230 -10 -14 0
-224 226 230 10 -14 0
-224 226 230 -10 14 0
-224 226 -230 10 14 0
-224 226 -230 -10 -14 0
-224 -226 230 10 14 0
-224 -226 230 -10 -14 0
-224 -226 -230 10 -14 0
-224 -226 -230 -10 14 0
440 442 446 10 14 0
440 442 446 -10 -14 0
440 442 -446 10 -14 0
440 442 -446 -10 14 0
440 -442 446 10 -14 0
440 -442 446 -10 14 0
440 -442 -446 10 14 0
440 -442 -446 -10 -14 0
-440 442 446 10 -14 0
-440 442 446 -10 14 0
-440 442 -446 10 14 0
-440 442 -446 -10 -14 0
-440 -442 446 10 14 0
-440 -442 446 -10 -14 0
-440 -442 -446 10 -14 0
-440 -442 -446 -10 14 0
9 10 -11 0
9 -10 11 0
-9 10 11 0
-9 -10 -11 0
225 226 227 10 0
225 226 -227 -10 0
225 -226 227 -10 0
225 -226 -227 10 0
-225 226 227 -10 0
-225 226 -227 10 0
-225 -226 227 10 0
-225 -226 -227 -10 0
441 442 443 10 0
441 442 -443 -10 0
441 -442 443 -10 0
441 -442 -443 10 0
-441 442 443 -10 0
-441 442 -443 10 0
-441 -442 443 10 0
-441 -442 -443 -10 0
11 13 -71 0
11 -13 71 0
-11 13 71 0
-11 -13 -71 0
227 229 287 -13 0
227 229 -287 13 0
227 -229 287 13 0
227 -229 -287 -13 0
-227 229 287 13 0
-227 229 -287 -13 0
-227 -229 287 -13 0
-227 -229 -287 13 0
443 445 503 -13 0
443 445 -503 13 0
443 -445 503 13 0
443 -445 -503 -13 0
-443 445 503 13 0
-443 445 -503 -13 0
-443 -445 503 -13 0
-443 -445 -503 13 0
12 13 -15 0
12 -13 15 0
-12 13 15 0
-12 -13 -15 0
228 229 231 -13 0
228 229 -231 13 0
228 -229 231 13 0
228 -229 -231 -13 0
-228 229 231 13 0
-228 229 -231 -13 0
-228 -229 231 -13 0
-228 -229 -231 13 0
444 445 447 -13 0
444 445 -447 13 0
444 -445 447 13 0
444 -445 -447 -13 0
-444 445 447 13 0
-444 445 -447 -13 0
-444 -445 447 -13 0
-444 -445 -447 13 0
14 15 -16 0
14 -15 16 0
-14 15 16 0
-14 -15 -16 0
230 231 232 -14 0
230 231 -232 14 0
230 -231 232 14 0
230 -231 -232 -14 0
-230 231 232 14 0
-230 231 -232 -14 0
-230 -231 232 -14 0
-230 -231 -232 14 0
446 447 448 -14 0
446 447 -448 14 0
446 -447 448 14 0
446 -447 -448 -14 0
-446 447 448 14 0
-446 447 -448 -14 0
-446 -447 448 -14 0
-446 -447 -448 14 0
16 17 -28 0
16 -17 28 0
-16 17 28 0
-16 -17 -28 0
232 233 244 -28 0
232 233 -244 28 0
232 -233 244 28 0
232 -233 -244 -28 0
-232 233 244 28 0
-232 233 -244 -28 0
-232 -233 244 -28 0
-232 -233 -244 28 0
448 449 460 -28 0
448 449 -460 28 0
448 -449 460 28 0
448 -449 -460 -28 0
-448 449 460 28 0
-448 449 -460 -28 0
-448 -449 460 -28 0
-448 -449 -460 28 0
17 18 -21 0
17 -18 21 0
-17 18 21 0
-17 -18 -21 0
233 234 237 -18 0
233 234 -237 18 0
233 -234 237 18 0
233 -234 -237 -18 0
-233 234 237 18 0
-233 234 -237 -18 0
-233 -234 237 -18 0
-233 -234 -237 18 0
449 450 453 -18 0
449 450 -453 18 0
449 -450 453 18 0
449 -450 -453 -18 0
-449 450 453 18 0
-449 450 -453 -18 0
-449 -450 453 -18 0
-449 -450 -453 18 0
18 19 -24 0
18 -19 24 0
-18 19 24 0
-18 -19 -24 0
234 235 240 -18 0
234 235 -240 18 0
234 -235 240 18 0
234 -235 -240 -18 0
-234 235 240 18 0
-234 235 -240 -18 0
-234 -235 240 -18 0
-234 -235 -240 18 0
450 451 456 -18 0
450 451 -456 18 0
450 -451 456 18 0
450 -451 -456 -18 0
-450 451 456 18 0
-450 451 -456 -18 0
-450 -451 456 -18 0
-450 -451 -456 18 0
19 20 -46 0
19 -20 46 0
-19 20 46 0
-19 -20 -46 0
235 236 -262 0
235 -236 262 0
-235 236 262 0
-235 -236 -262 0
451 452 -478 0
451 -452 478 0
-451 452 478 0
-451 -452 -478 0
20 22 -26 0
20 -22 26 0
-20 22 26 0
-20 -22 -26 0
236 238 -242 0
236 -238 242 0
-236 238 242 0
-236 -238 -242 0
452 454 -458 0
452 -454 458 0
-452 454 458 0
-452 -454 -458 0
21 22 -23 0
21 -22 23 0
-21 22 23 0
-21 -22 -23 0
237 238 -239 0
237 -238 239 0
-237 238 239 0
-237 -238 -239 0
453 454 -455 0
453 -454 455 0
-453 454 455 0
-453 -454 -455 0
23 25 -48 0
23 -25 48 0
-23 25 48 0
-23 -25 -48 0
239 241 -264 0
239 -241 264 0
-239 241 264 0
-239 -241 -264 0
455 457 -480 0
455 -457 480 0
-455 457 480 0
-455 -457 -480 0
24 25 -27 0
24 -25 27 0
-24 25 27 0
-24 -25 -27 0
240 241 -243 0
240 -241 243 0
-240 241 243 0
-240 -241 -243 0
456 457 -459 0
456 -457 459 0
-456 457 459 0
-456 -457 -459 0
26 27 -29 0
26 -27 29 0
-26 27 29 0
-26 -27 -29 0
242 243 245 29 0
242 243 -245 -29 0
242 -243 245 -29 0
242 -243 -245 29 0
-242 243 245 -29 0
-242 243 -245 29 0
-242 -243 245 29 0
-242 -243 -245 -29 0
458 459 461 29 0
458 459 -461 -29 0
458 -459 461 -29 0
458 -459 -461 29 0
-458 459 461 -29 0
-458 459 -461 29 0
-458 -459 461 29 0
-458 -459 -461 -29 0
28 29 -31 0
28 -29 31 0
-28 29 31 0
-28 -29 -31 0
244 245 247 28 29 0
244 245 247 -28 -29 0
244 245 -247 28 -29 0
244 245 -247 -28 29 0
244 -245 247 28 -29 0
244 -245 247 -28 29 0
244 -245 -247 28 29 0
244 -245 -247 -28 -29 0
-244 245 247 28 -29 0
-244 245 247 -28 29 0
-244 245 -247 28 29 0
-244 245 -247 -28 -29 0
-244 -245 247 28 29 0
-244 -245 247 -28 -29 0
-244 -245 -247 28 -29 0
-244 -245 -247 -28 29 0
460 461 463 28 29 0
460 461 463 -28 -29 0
460 461 -463 28 -29 0
460 461 -463 -28 29 0
460 -461 463 28 -29 0
460 -461 463 -28 29 0
460 -461 -463 28 29 0
460 -461 -463 -28 -29 0
-460 461 463 28 -29 0
-460 461 463 -28 29 0
-460 461 -463 28 29 0
-460 461 -463 -28 -29 0
-460 -461 463 28 29 0
-460 -461 463 -28 -29 0
-460 -461 -463 28 -29 0
-460 -461 -463 -28 29 0
30 31 -41 0
30 -31 41 0
-30 31 41 0
-30 -31 -41 0
246 247 -257 0
246 -247 257 0
-246 247 257 0
-246 -247 -257 0
462 463 -473 0
462 -463 473 0
-462 463 473 0
-462 -463 -473 0
32 34 -50 0
32 -34 50 0
-32 34 50 0
-32 -34 -50 0
248 250 266 -32 0
248 250 -266 32 0
248 -250 266 32 0
248 -250 -266 -32 0
-248 250 266 32 0
-248 250 -266 -32 0
-248 -250 266 -32 0
-248 -250 -266 32 0
464 466 482 -32 0
464 466 -482 32 0
464 -466 482 32 0
464 -466 -482 -32 0
-464 466 482 32 0
-464 466 -482 -32 0
-464 -466 482 -32 0
-464 -466 -482 32 0
33 34 -36 0
33 -34 36 0
-33 34 36 0
-33 -34 -36 0
249 250 252 -36 0
249 250 -252 36 0
249 -250 252 36 0
249 -250 -252 -36 0
-249 250 252 36 0
-249 250 -252 -36 0
-249 -250 252 -36 0
-249 -250 -252 36 0
465 466 468 -36 0
465 466 -468 36 0
465 -466 468 36 0
465 -466 -468 -36 0
-465 466 468 36 0
-465 466 -468 -36 0
-465 -466 468 -36 0
-465 -466 -468 36 0
35 36 -99 0
35 -36 99 0
-35 36 99 0
-35 -36 -99 0
251 252 315 -36 0
251 252 -315 36 0
251 -252 315 36 0
251 -252 -315 -36 0
-251 252 315 36 0
-251 252 -315 -36 0
-251 -252 315 -36 0
-251 -252 -315 36 0
467 468 531 -36 0
467 468 -531 36 0
467 -468 531 36 0
467 -468 -531 -36 0
-467 468 531 36 0
-467 468 -531 -36 0
-467 -468 531 -36 0
-467 -468 -531 36 0
37 38 -97 0
37 -38 97 0
-37 38 97 0
-37 -38 -97 0
253 254 313 -38 0
253 254 -313 38 0
253 -254 313 38 0
253 -254 -313 -38 0
-253 254 313 38 0
-253 254 -313 -38 0
-253 -254 313 -38 0
-253 -254 -313 38 0
469 470 529 -38 0
469 470 -529 38 0
469 -470 529 38 0
469 -470 -529 -38 0
-469 470 529 38 0
-469 470 -529 -38 0
-469 -470 529 -38 0
-469 -470 -529 38 0
38 40 -101 0
38 -40 101 0
-38 40 101 0
-38 -40 -101 0
254 256 317 -38 0
254 256 -317 38 0
254 -256 317 38 0
254 -256 -317 -38 0
-254 256 317 38 0
-254 256 -317 -38 0
-254 -256 317 -38 0
-254 -256 -317 38 0
470 472 533 -38 0
470 472 -533 38 0
470 -472 533 38 0
470 -472 -533 -38 0
-470 472 533 38 0
-470 472 -533 -38 0
-470 -472 533 -38 0
-470 -472 -533 38 0
39 40 -42 0
39 -40 42 0
-39 40 42 0
-39 -40 -42 0
255 256 258 -42 0
255 256 -258 42 0
255 -256 258 42 0
255 -256 -258 -42 0
-255 256 258 42 0
-255 256 -258 -42 0
-255 -256 258 -42 0
-255 -256 -258 42 0
471 472 474 -42 0
471 472 -474 42 0
471 -472 474 42 0
471 -472 -474 -42 0
-471 472 474 42 0
-471 472 -474 -42 0
-471 -472 474 -42 0
-471 -472 -474 42 0
41 42 -43 0
41 -42 43 0
-41 42 43 0
-41 -42 -43 0
257 258 259 -42 0
257 258 -259 42 0
257 -258 259 42 0
257 -258 -259 -42 0
-257 258 259 42 0
-257 258 -259 -42 0
-257 -258 259 -42 0
-257 -258 -259 42 0
473 474 475 -42 0
473 474 -475 42 0
473 -474 475 42 0
473 -474 -475 -42 0
-473 474 475 42 0
-473 474 -475 -42 0
-473 -474 475 -42 0
-473 -474 -475 42 0
43 45 -51 0
43 -45 51 0
-43 45 51 0
-43 -45 -51 0
259 261 -267 0
259 -261 267 0
-259 261 267 0
-259 -261 -267 0
475 477 -483 0
475 -477 483 0
-475 477 483 0
-475 -477 -483 0
44 45 -47 0
44 -45 47 0
-44 45 47 0
-44 -45 -47 0
260 261 263 -47 0
260 261 -263 47 0
260 -261 263 47 0
260 -261 -263 -47 0
-260 261 263 47 0
-260 261 -263 -47 0
-260 -261 263 -47 0
-260 -261 -263 47 0
476 477 479 -47 0
476 477 -479 47 0
476 -477 479 47 0
476 -477 -479 -47 0
-476 477 479 47 0
-476 477 -479 -47 0
-476 -477 479 -47 0
-476 -477 -479 47 0
46 47 -49 0
46 -47 49 0
-46 47 49 0
-46 -47 -49 0
262 263 265 47 49 0
262 263 265 -47 -49 0
262 263 -265 47 -49 0
262 263 -265 -47 49 0
262 -263 265 47 -49 0
262 -263 265 -47 49 0
262 -263 -265 47 49 0
262 -263 -265 -47 -49 0
-262 263 265 47 -49 0
-262 263 265 -47 49 0
-262 263 -265 47 49 0
-262 263 -265 -47 -49 0
-262 -263 265 47 49 0
-262 -263 265 -47 -49 0
-262 -263 -265 47 -49 0
-262 -263 -265 -47 49 0
478 479 481 47 49 0
478 479 481 -47 -49 0
478 479 -481 47 -49 0
478 479 -481 -47 49 0
478 -479 481 47 -49 0
478 -479 481 -47 49 0
478 -479 -481 47 49 0
478 -479 -481 -47 -49 0
-478 479 481 47 -49 0
-478 479 481 -47 49 0
-478 479 -481 47 49 0
-478 479 -481 -47 -49 0
-478 -479 481 47 49 0
-478 -479 481 -47 -49 0
-478 -479 -481 47 -49 0
-478 -479 -481 -47 49 0
48 49 -52 0
48 -49 52 0
-48 49 52 0
-48 -49 -52 0
264 265 268 49 0
264 265 -268 -49 0
264 -265 268 -49 0
264 -265 -268 49 0
-264 265 268 -49 0
-264 265 -268 49 0
-264 -265 268 49 0
-264 -265 -268 -49 0
480 481 484 49 0
480 481 -484 -49 0
480 -481 484 -49 0
480 -481 -484 49 0
-480 481 484 -49 0
-480 481 -484 49 0
-480 -481 484 49 0
-480 -481 -484 -49 0
50 51 -52 0
50 -51 52 0
-50 51 52 0
-50 -51 -52 0
266 267 -268 0
266 -267 268 0
-266 267 268 0
-266 -267 -268 0
482 483 -484 0
482 -483 484 0
-482 483 484 0
-482 -483 -484 0
53 56 -85 0
53 -56 85 0
-53 56 85 0
-53 -56 -85 0
269 272 301 56 0
269 272 -301 -56 0
269 -272 301 -56 0
269 -272 -301 56 0
-269 272 301 -56 0
-269 272 -301 56 0
-269 -272 301 56 0
-269 -272 -301 -56 0
485 488 517 56 0
485 488 -517 -56 0
485 -488 517 -56 0
485 -488 -517 56 0
-485 488 517 -56 0
-485 488 -517 56 0
-485 -488 517 56 0
-485 -488 -517 -56 0
53 54 -88 0
53 -54 88 0
-53 54 88 0
-53 -54 -88 0
269 270 304 54 0
269 270 -304 -54 0
269 -270 304 -54 0
269 -270 -304 54 0
-269 270 304 -54 0
-269 270 -304 54 0
-269 -270 304 54 0
-269 -270 -304 -54 0
485 486 520 54 0
485 486 -520 -54 0
485 -486 520 -54 0
485 -486 -520 54 0
-485 486 520 -54 0
-485 486 -520 54 0
-485 -486 520 54 0
-485 -486 -520 -54 0
54 55 -100 0
54 -55 100 0
-54 55 100 0
-54 -55 -100 0
270 271 316 54 55 0
270 271 316 -54 -55 0
270 271 -316 54 -55 0
270 271 -316 -54 55 0
270 -271 316 54 -55 0
270 -271 316 -54 55 0
270 -271 -316 54 55 0
270 -271 -316 -54 -55 0
-270 271 316 54 -55 0
-270 271 316 -54 55 0
-270 271 -316 54 55 0
-270 271 -316 -54 -55 0
-270 -271 316 54 55 0
-270 -271 316 -54 -55 0
-270 -271 -316 54 -55 0
-270 -271 -316 -54 55 0
486 487 532 54 55 0
486 487 532 -54 -55 0
486 487 -532 54 -55 0
486 487 -532 -54 55 0
486 -487 532 54 -55 0
486 -487 532 -54 55 0
486 -487 -532 54 55 0
486 -487 -532 -54 -55 0
-486 487 532 54 -55 0
-486 487 532 -54 55 0
-486 487 -532 54 55 0
-486 487 -532 -54 -55 0
-486 -487 532 54 55 0
-486 -487 532 -54 -55 0
-486 -487 -532 54 -55 0
-486 -487 -532 -54 55 0
55 57 -86 0
55 -57 86 0
-55 57 86 0
-55 -57 -86 0
271 273 302 -55 0
271 273 -302 55 0
271 -273 302 55 0
271 -273 -302 -55 0
-271 273 302 55 0
-271 273 -302 -55 0
-271 -273 302 -55 0
-271 -273 -302 55 0
487 489 518 -55 0
487 489 -518 55 0
487 -489 518 55 0
487 -489 -518 -55 0
-487 489 518 55 0
-487 489 -518 -55 0
-487 -489 518 -55 0
-487 -489 -518 55 0
56 57 -94 0
56 -57 94 0
-56 57 94 0
-56 -57 -94 0
272 273 310 56 0
272 273 -310 -56 0
272 -273 310 -56 0
272 -273 -310 56 0
-272 273 310 -56 0
-272 273 -310 56 0
-272 -273 310 56 0
-272 -273 -310 -56 0
488 489 526 56 0
488 489 -526 -56 0
488 -489 526 -56 0
488 -489 -526 56 0
-488 489 526 -56 0
-488 489 -526 56 0
-488 -489 526 56 0
-488 -489 -526 -56 0
58 61 -83 0
58 -61 83 0
-58 61 83 0
-58 -61 -83 0
274 277 -299 0
274 -277 299 0
-274 277 299 0
-274 -277 -299 0
490 493 -515 0
490 -493 515 0
-490 493 515 0
-490 -493 -515 0
58 59 -64 0
58 -59 64 0
-58 59 64 0
-58 -59 -64 0
274 275 280 59 64 0
274 275 280 -59 -64 0
274 275 -280 59 -64 0
274 275 -280 -59 64 0
274 -275 280 59 -64 0
274 -275 280 -59 64 0
274 -275 -280 59 64 0
274 -275 -280 -59 -64 0
-274 275 280 59 -64 0
-274 275 280 -59 64 0
-274 275 -280 59 64 0
-274 275 -280 -59 -64 0
-274 -275 280 59 64 0
-274 -275 280 -59 -64 0
-274 -275 -280 59 -64 0
-274 -275 -280 -59 64 0
490 491 496 59 64 0
490 491 496 -59 -64 0
490 491 -496 59 -64 0
490 491 -496 -59 64 0
490 -491 496 59 -64 0
490 -491 496 -59 64 0
490 -491 -496 59 64 0
490 -491 -496 -59 -64 0
-490 491 496 59 -64 0
-490 491 496 -59 64 0
-490 491 -496 59 64 0
-490 491 -496 -59 -64 0
-490 -491 496 59 64 0
-490 -491 496 -59 -64 0
-490 -491 -496 59 -64 0
-490 -491 -496 -59 64 0
59 60 -90 0
59 -60 90 0
-59 60 90 0
-59 -60 -90 0
275 276 306 59 90 0
275 276 306 -59 -90 0
275 276 -306 59 -90 0
275 276 -306 -59 90 0
275 -276 306 59 -90 0
275 -276 306 -59 90 0
275 -276 -306 59 90 0
275 -276 -306 -59 -90 0
-275 276 306 59 -90 0
-275 276 306 -59 90 0
-275 276 -306 59 90 0
-275 276 -306 -59 -90 0
-275 -276 306 59 90 0
-275 -276 306 -59 -90 0
-275 -276 -306 59 -90 0
-275 -276 -306 -59 90 0
491 492 522 59 90 0
491 492 522 -59 -90 0
491 492 -522 59 -90 0
491 492 -522 -59 90 0
491 -492 522 59 -90 0
491 -492 522 -59 90 0
491 -492 -522 59 90 0
491 -492 -522 -59 -90 0
-491 492 522 59 -90 0
-491 492 522 -59 90 0
-491 492 -522 59 90 0
-491 492 -522 -59 -90 0
-491 -492 522 59 90 0
-491 -492 522 -59 -90 0
-491 -492 -522 59 -90 0
-491 -492 -522 -59 90 0
60 62 -66 0
60 -62 66 0
-60 62 66 0
-60 -62 -66 0
276 278 282 62 66 0
276 278 282 -62 -66 0
276 278 -282 62 -66 0
276 278 -282 -62 66 0
276 -278 282 62 -66 0
276 -278 282 -62 66 0
276 -278 -282 62 66 0
276 -278 -282 -62 -66 0
-276 278 282 62 -66 0
-276 278 282 -62 66 0
-276 278 -282 62 66 0
-276 278 -282 -62 -66 0
-276 -278 282 62 66 0
-276 -278 282 -62 -66 0
-276 -278 -282 62 -66 0
-276 -278 -282 -62 66 0
492 494 498 62 66 0
492 494 498 -62 -66 0
492 494 -498 62 -66 0
492 494 -498 -62 66 0
492 -494 498 62 -66 0
492 -494 498 -62 66 0
492 -494 -498 62 66 0
492 -494 -498 -62 -66 0
-492 494 498 62 -66 0
-492 494 498 -62 66 0
-492 494 -498 62 66 0
-492 494 -498 -62 -66 0
-492 -494 498 62 66 0
-492 -494 498 -62 -66 0
-492 -494 -498 62 -66 0
-492 -494 -498 -62 66 0
61 62 -63 0
61 -62 63 0
-61 62 63 0
-61 -62 -63 0
277 278 279 -62 0
277 278 -279 62 0
277 -278 279 62 0
277 -278 -279 -62 0
-277 278 279 62 0
-277 278 -279 -62 0
-277 -278 279 -62 0
-277 -278 -279 62 0
493 494 495 -62 0
493 494 -495 62 0
493 -494 495 62 0
493 -494 -495 -62 0
-493 494 495 62 0
-493 494 -495 -62 0
-493 -494 495 -62 0
-493 -494 -495 62 0
63 65 -92 0
63 -65 92 0
-63 65 92 0
-63 -65 -92 0
279 281 308 92 0
279 281 -308 -92 0
279 -281 308 -92 0
279 -281 -308 92 0
-279 281 308 -92 0
-279 281 -308 92 0
-279 -281 308 92 0
-279 -281 -308 -92 0
495 497 524 92 0
495 497 -524 -92 0
495 -497 524 -92 0
495 -497 -524 92 0
-495 497 524 -92 0
-495 497 -524 92 0
-495 -497 524 92 0
-495 -497 -524 -92 0
64 65 -67 0
64 -65 67 0
-64 65 67 0
-64 -65 -67 0
280 281 283 64 0
280 281 -283 -64 0
280 -281 283 -64 0
280 -281 -283 64 0
-280 281 283 -64 0
-280 281 -283 64 0
-280 -281 283 64 0
-280 -281 -283 -64 0
496 497 499 64 0
496 497 -499 -64 0
496 -497 499 -64 0
496 -497 -499 64 0
-496 497 499 -64 0
-496 497 -499 64 0
-496 -497 499 64 0
-496 -497 -499 -64 0
66 67 -68 0
66 -67 68 0
-66 67 68 0
-66 -67 -68 0
282 283 284 66 0
282 283 -284 -66 0
282 -283 284 -66 0
282 -283 -284 66 0
-282 283 284 -66 0
-282 283 -284 66 0
-282 -283 284 66 0
-282 -283 -284 -66 0
498 499 500 66 0
498 499 -500 -66 0
498 -499 500 -66 0
498 -499 -500 66 0
-498 499 500 -66 0
-498 499 -500 66 0
-498 -499 500 66 0
-498 -499 -500 -66 0
68 69 -81 0
68 -69 81 0
-68 69 81 0
-68 -69 -81 0
284 285 297 -69 0
284 285 -297 69 0
284 -285 297 69 0
284 -285 -297 -69 0
-284 285 297 69 0
-284 285 -297 -69 0
-284 -285 297 -69 0
-284 -285 -297 69 0
500 501 513 -69 0
500 501 -513 69 0
500 -501 513 69 0
500 -501 -513 -69 0
-500 501 513 69 0
-500 501 -513 -69 0
-500 -501 513 -69 0
-500 -501 -513 69 0
69 70 -74 0
69 -70 74 0
-69 70 74 0
-69 -70 -74 0
285 286 290 69 70 0
285 286 290 -69 -70 0
285 286 -290 69 -70 0
285 286 -290 -69 70 0
285 -286 290 69 -70 0
285 -286 290 -69 70 0
285 -286 -290 69 70 0
285 -286 -290 -69 -70 0
-285 286 290 69 -70 0
-285 286 290 -69 70 0
-285 286 -290 69 70 0
-285 286 -290 -69 -70 0
-285 -286 290 69 70 0
-285 -286 290 -69 -70 0
-285 -286 -290 69 -70 0
-285 -286 -290 -69 70 0
501 502 506 69 70 0
501 502 506 -69 -70 0
501 502 -506 69 -70 0
501 502 -506 -69 70 0
501 -502 506 69 -70 0
501 -502 506 -69 70 0
501 -502 -506 69 70 0
501 -502 -506 -69 -70 0
-501 502 506 69 -70 0
-501 502 506 -69 70 0
-501 502 -506 69 70 0
-501 502 -506 -69 -70 0
-501 -502 506 69 70 0
-501 -502 506 -69 -70 0
-501 -502 -506 69 -70 0
-501 -502 -506 -69 70 0
70 72 -77 0
70 -72 77 0
-70 72 77 0
-70 -72 -77 0
286 288 293 70 77 0
286 288 293 -70 -77 0
286 288 -293 70 -77 0
286 288 -293 -70 77 0
286 -288 293 70 -77 0
286 -288 293 -70 77 0
286 -288 -293 70 77 0
286 -288 -293 -70 -77 0
-286 288 293 70 -77 0
-286 288 293 -70 77 0
-286 288 -293 70 77 0
-286 288 -293 -70 -77 0
-286 -288 293 70 77 0
-286 -288 293 -70 -77 0
-286 -288 -293 70 -77 0
-286 -288 -293 -70 77 0
502 504 509 70 77 0
502 504 509 -70 -77 0
502 504 -509 70 -77 0
502 504 -509 -70 77 0
502 -504 509 70 -77 0
502 -504 509 -70 77 0
502 -504 -509 70 77 0
502 -504 -509 -70 -77 0
-502 504 509 70 -77 0
-502 504 509 -70 77 0
-502 504 -509 70 77 0
-502 504 -509 -70 -77 0
-502 -504 509 70 77 0
-502 -504 509 -70 -77 0
-502 -504 -509 70 -77 0
-502 -504 -509 -70 77 0
71 72 -73 0
71 -72 73 0
-71 72 73 0
-71 -72 -73 0
287 288 -289 0
287 -288 289 0
-287 288 289 0
-287 -288 -289 0
503 504 -505 0
503 -504 505 0
-503 504 505 0
-503 -504 -505 0
73 75 -79 0
73 -75 79 0
-73 75 79 0
-73 -75 -79 0
289 291 295 -79 0
289 291 -295 79 0
289 -291 295 79 0
289 -291 -295 -79 0
-289 291 295 79 0
-289 291 -295 -79 0
-289 -291 295 -79 0
-289 -291 -295 79 0
505 507 511 -79 0
505 507 -511 79 0
505 -507 511 79 0
505 -507 -511 -79 0
-505 507 511 79 0
-505 507 -511 -79 0
-505 -507 511 -79 0
-505 -507 -511 79 0
74 75 -76 0
74 -75 76 0
-74 75 76 0
-74 -75 -76 0
290 291 -292 0
290 -291 292 0
-290 291 292 0
-290 -291 -292 0
506 507 -508 0
506 -507 508 0
-506 507 508 0
-506 -507 -508 0
76 78 -103 0
76 -78 103 0
-76 78 103 0
-76 -78 -103 0
292 294 -319 0
292 -294 319 0
-292 294 319 0
-292 -294 -319 0
508 510 -535 0
508 -510 535 0
-508 510 535 0
-508 -510 -535 0
77 78 -80 0
77 -78 80 0
-77 78 80 0
-77 -78 -80 0
293 294 296 77 80 0
293 294 296 -77 -80 0
293 294 -296 77 -80 0
293 294 -296 -77 80 0
293 -294 296 77 -80 0
293 -294 296 -77 80 0
293 -294 -296 77 80 0
293 -294 -296 -77 -80 0
-293 294 296 77 -80 0
-293 294 296 -77 80 0
-293 294 -296 77 80 0
-293 294 -296 -77 -80 0
-293 -294 296 77 80 0
-293 -294 296 -77 -80 0
-293 -294 -296 77 -80 0
-293 -294 -296 -77 80 0
509 510 512 77 80 0
509 510 512 -77 -80 0
509 510 -512 77 -80 0
509 510 -512 -77 80 0
509 -510 512 77 -80 0
509 -510 512 -77 80 0
509 -510 -512 77 80 0
509 -510 -512 -77 -80 0
-509 510 512 77 -80 0
-509 510 512 -77 80 0
-509 510 -512 77 80 0
-509 510 -512 -77 -80 0
-509 -510 512 77 80 0
-509 -510 512 -77 -80 0
-509 -510 -512 77 -80 0
-509 -510 -512 -77 80 0
79 80 -82 0
79 -80 82 0
-79 80 82 0
-79 -80 -82 0
295 296 298 79 80 0
295 296 298 -79 -80 0
295 296 -298 79 -80 0
295 296 -298 -79 80 0
295 -296 298 79 -80 0
295 -296 298 -79 80 0
295 -296 -298 79 80 0
295 -296 -298 -79 -80 0
-295 296 298 79 -80 0
-295 296 298 -79 80 0
-295 296 -298 79 80 0
-295 296 -298 -79 -80 0
-295 -296 298 79 80 0
-295 -296 298 -79 -80 0
-295 -296 -298 79 -80 0
-295 -296 -298 -79 80 0
511 512 514 79 80 0
511 512 514 -79 -80 0
511 512 -514 79 -80 0
511 512 -514 -79 80 0
511 -512 514 79 -80 0
511 -512 514 -79 80 0
511 -512 -514 79 80 0
511 -512 -514 -79 -80 0
-511 512 514 79 -80 0
-511 512 514 -79 80 0
-511 512 -514 79 80 0
-511 512 -514 -79 -80 0
-511 -512 514 79 80 0
-511 -512 514 -79 -80 0
-511 -512 -514 79 -80 0
-511 -512 -514 -79 80 0
81 82 -84 0
81 -82 84 0
-81 82 84 0
-81 -82 -84 0
297 298 -300 0
297 -298 300 0
-297 298 300 0
-297 -298 -300 0
513 514 -516 0
513 -514 516 0
-513 514 516 0
-513 -514 -516 0
83 84 -96 0
83 -84 96 0
-83 84 96 0
-83 -84 -96 0
299 300 312 96 0
299 300 -312 -96 0
299 -300 312 -96 0
299 -300 -312 96 0
-299 300 312 -96 0
-299 300 -312 96 0
-299 -300 312 96 0
-299 -300 -312 -96 0
515 516 528 96 0
515 516 -528 -96 0
515 -516 528 -96 0
515 -516 -528 96 0
-515 516 528 -96 0
-515 516 -528 96 0
-515 -516 528 96 0
-515 -516 -528 -96 0
85 87 -113 0
85 -87 113 0
-85 87 113 0
-85 -87 -113 0
301 303 329 113 0
301 303 -329 -113 0
301 -303 329 -113 0
301 -303 -329 113 0
-301 303 329 -113 0
-301 303 -329 113 0
-301 -303 329 113 0
-301 -303 -329 -113 0
517 519 545 113 0
517 519 -545 -113 0
517 -519 545 -113 0
517 -519 -545 113 0
-517 519 545 -113 0
-517 519 -545 113 0
-517 -519 545 113 0
-517 -519 -545 -113 0
86 87 -89 0
86 -87 89 0
-86 87 89 0
-86 -87 -89 0
302 303 305 89 0
302 303 -305 -89 0
302 -303 305 -89 0
302 -303 -305 89 0
-302 303 305 -89 0
-302 303 -305 89 0
-302 -303 305 89 0
-302 -303 -305 -89 0
518 519 521 89 0
518 519 -521 -89 0
518 -519 521 -89 0
518 -519 -521 89 0
-518 519 521 -89 0
-518 519 -521 89 0
-518 -519 521 89 0
-518 -519 -521 -89 0
88 89 -91 0
88 -89 91 0
-88 89 91 0
-88 -89 -91 0
304 305 307 89 0
304 305 -307 -89 0
304 -305 307 -89 0
304 -305 -307 89 0
-304 305 307 -89 0
-304 305 -307 89 0
-304 -305 307 89 0
-304 -305 -307 -89 0
520 521 523 89 0
520 521 -523 -89 0
520 -521 523 -89 0
520 -521 -523 89 0
-520 521 523 -89 0
-520 521 -523 89 0
-520 -521 523 89 0
-520 -521 -523 -89 0
90 91 -93 0
90 -91 93 0
-90 91 93 0
-90 -91 -93 0
306 307 309 90 0
306 307 -309 -90 0
306 -307 309 -90 0
306 -307 -309 90 0
-306 307 309 -90 0
-306 307 -309 90 0
-306 -307 309 90 0
-306 -307 -309 -90 0
522 523 525 90 0
522 523 -525 -90 0
522 -523 525 -90 0
522 -523 -525 90 0
-522 523 525 -90 0
-522 523 -525 90 0
-522 -523 525 90 0
-522 -523 -525 -90 0
92 93 -95 0
92 -93 95 0
-92 93 95 0
-92 -93 -95 0
308 309 311 92 0
308 309 -311 -92 0
308 -309 311 -92 0
308 -309 -311 92 0
-308 309 311 -92 0
-308 309 -311 92 0
-308 -309 311 92 0
-308 -309 -311 -92 0
524 525 527 92 0
524 525 -527 -92 0
524 -525 527 -92 0
524 -525 -527 92 0
-524 525 527 -92 0
-524 525 -527 92 0
-524 -525 527 92 0
-524 -525 -527 -92 0
94 95 -114 0
94 -95 114 0
-94 95 114 0
-94 -95 -114 0
310 311 330 -114 0
310 311 -330 114 0
310 -311 330 114 0
310 -311 -330 -114 0
-310 311 330 114 0
-310 311 -330 -114 0
-310 -311 330 -114 0
-310 -311 -330 114 0
526 527 546 -114 0
526 527 -546 114 0
526 -527 546 114 0
526 -527 -546 -114 0
-526 527 546 114 0
-526 527 -546 -114 0
-526 -527 546 -114 0
-526 -527 -546 114 0
96 98 -144 0
96 -98 144 0
-96 98 144 0
-96 -98 -144 0
312 314 360 96 0
312 314 -360 -96 0
312 -314 360 -96 0
312 -314 -360 96 0
-312 314 360 -96 0
-312 314 -360 96 0
-312 -314 360 96 0
-312 -314 -360 -96 0
528 530 576 96 0
528 530 -576 -96 0
528 -530 576 -96 0
528 -530 -576 96 0
-528 530 576 -96 0
-528 530 -576 96 0
-528 -530 576 96 0
-528 -530 -576 -96 0
97 98 -105 0
97 -98 105 0
-97 98 105 0
-97 -98 -105 0
313 314 321 105 0
313 314 -321 -105 0
313 -314 321 -105 0
313 -314 -321 105 0
-313 314 321 -105 0
-313 314 -321 105 0
-313 -314 321 105 0
-313 -314 -321 -105 0
529 530 537 105 0
529 530 -537 -105 0
529 -530 537 -105 0
529 -530 -537 105 0
-529 530 537 -105 0
-529 530 -537 105 0
-529 -530 537 105 0
-529 -530 -537 -105 0
99 100 -102 0
99 -100 102 0
-99 100 102 0
-99 -100 -102 0
315 316 -318 0
315 -316 318 0
-315 316 318 0
-315 -316 -318 0
531 532 -534 0
531 -532 534 0
-531 532 534 0
-531 -532 -534 0
101 102 -104 0
101 -102 104 0
-101 102 104 0
-101 -102 -104 0
317 318 320 104 0
317 318 -320 -104 0
317 -318 320 -104 0
317 -318 -320 104 0
-317 318 320 -104 0
-317 318 -320 104 0
-317 -318 320 104 0
-317 -318 -320 -104 0
533 534 536 104 0
533 534 -536 -104 0
533 -534 536 -104 0
533 -534 -536 104 0
-533 534 536 -104 0
-533 534 -536 104 0
-533 -534 536 104 0
-533 -534 -536 -104 0
103 104 -106 0
103 -104 106 0
-103 104 106 0
-103 -104 -106 0
319 320 322 104 0
319 320 -322 -104 0
319 -320 322 -104 0
319 -320 -322 104 0
-319 320 322 -104 0
-319 320 -322 104 0
-319 -320 322 104 0
-319 -320 -322 -104 0
535 536 538 104 0
535 536 -538 -104 0
535 -536 538 -104 0
535 -536 -538 104 0
-535 536 538 -104 0
-535 536 -538 104 0
-535 -536 538 104 0
-535 -536 -538 -104 0
105 106 -112 0
105 -106 112 0
-105 106 112 0
-105 -106 -112 0
321 322 328 105 0
321 322 -328 -105 0
321 -322 328 -105 0
321 -322 -328 105 0
-321 322 328 -105 0
-321 322 -328 105 0
-321 -322 328 105 0
-321 -322 -328 -105 0
537 538 544 105 0
537 538 -544 -105 0
537 -538 544 -105 0
537 -538 -544 105 0
-537 538 544 -105 0
-537 538 -544 105 0
-537 -538 544 105 0
-537 -538 -544 -105 0
107 110 -139 0
107 -110 139 0
-107 110 139 0
-107 -110 -139 0
323 326 -355 0
323 -326 355 0
-323 326 355 0
-323 -326 -355 0
539 542 -571 0
539 -542 571 0
-539 542 571 0
-539 -542 -571 0
107 108 -142 0
107 -108 142 0
-107 108 142 0
-107 -108 -142 0
323 324 -358 0
323 -324 358 0
-323 324 358 0
-323 -324 -358 0
539 540 -574 0
539 -540 574 0
-539 540 574 0
-539 -540 -574 0
108 109 -152 0
108 -109 152 0
-108 109 152 0
-108 -109 -152 0
324 325 -368 0
324 -325 368 0
-324 325 368 0
-324 -325 -368 0
540 541 -584 0
540 -541 584 0
-540 541 584 0
-540 -541 -584 0
109 111 -140 0
109 -111 140 0
-109 111 140 0
-109 -111 -140 0
325 327 -356 0
325 -327 356 0
-325 327 356 0
-325 -327 -356 0
541 543 -572 0
541 -543 572 0
-541 543 572 0
-541 -543 -572 0
110 111 -148 0
110 -111 148 0
-110 111 148 0
-110 -111 -148 0
326 327 364 148 0
326 327 -364 -148 0
326 -327 364 -148 0
326 -327 -364 148 0
-326 327 364 -148 0
-326 327 -364 148 0
-326 -327 364 148 0
-326 -327 -364 -148 0
542 543 580 148 0
542 543 -580 -148 0
542 -543 580 -148 0
542 -543 -580 148 0
-542 543 580 -148 0
-542 543 -580 148 0
-542 -543 580 148 0
-542 -543 -580 -148 0
112 117 -137 0
112 -117 137 0
-112 117 137 0
-112 -117 -137 0
328 333 -353 0
328 -333 353 0
-328 333 353 0
-328 -333 -353 0
544 549 -569 0
544 -549 569 0
-544 549 569 0
-544 -549 -569 0
113 115 -119 0
113 -115 119 0
-113 115 119 0
-113 -115 -119 0
329 331 335 113 0
329 331 -335 -113 0
329 -331 335 -113 0
329 -331 -335 113 0
-329 331 335 -113 0
-329 331 -335 113 0
-329 -331 335 113 0
-329 -331 -335 -113 0
545 547 551 113 0
545 547 -551 -113 0
545 -547 551 -113 0
545 -547 -551 113 0
-545 547 551 -113 0
-545 547 -551 113 0
-545 -547 551 113 0
-545 -547 -551 -113 0
114 115 -116 0
114 -115 116 0
-114 115 116 0
-114 -115 -116 0
330 331 332 -114 0
330 331 -332 114 0
330 -331 332 114 0
330 -331 -332 -114 0
-330 331 332 114 0
-330 331 -332 -114 0
-330 -331 332 -114 0
-330 -331 -332 114 0
546 547 548 -114 0
546 547 -548 114 0
546 -547 548 114 0
546 -547 -548 -114 0
-546 547 548 114 0
-546 547 -548 -114 0
-546 -547 548 -114 0
-546 -547 -548 114 0
116 118 -121 0
116 -118 121 0
-116 118 121 0
-116 -118 -121 0
332 334 337 121 0
332 334 -337 -121 0
332 -334 337 -121 0
332 -334 -337 121 0
-332 334 337 -121 0
-332 334 -337 121 0
-332 -334 337 121 0
-332 -334 -337 -121 0
548 550 553 121 0
548 550 -553 -121 0
548 -550 553 -121 0
548 -550 -553 121 0
-548 550 553 -121 0
-548 550 -553 121 0
-548 -550 553 121 0
-548 -550 -553 -121 0
117 118 -162 0
117 -118 162 0
-117 118 162 0
-117 -118 -162 0
333 334 378 -162 0
333 334 -378 162 0
333 -334 378 162 0
333 -334 -378 -162 0
-333 334 378 162 0
-333 334 -378 -162 0
-333 -334 378 -162 0
-333 -334 -378 162 0
549 550 594 -162 0
549 550 -594 162 0
549 -550 594 162 0
549 -550 -594 -162 0
-549 550 594 162 0
-549 550 -594 -162 0
-549 -550 594 -162 0
-549 -550 -594 162 0
120 146 -164 0
120 -146 164 0
-120 146 164 0
-120 -146 -164 0
336 362 -380 0
336 -362 380 0
-336 362 380 0
-336 -362 -380 0
552 578 -596 0
552 -578 596 0
-552 578 596 0
-552 -578 -596 0
119 120 -122 0
119 -120 122 0
-119 120 122 0
-119 -120 -122 0
335 336 -338 0
335 -336 338 0
-335 336 338 0
-335 -336 -338 0
551 552 -554 0
551 -552 554 0
-551 552 554 0
-551 -552 -554 0
121 122 -123 0
121 -122 123 0
-121 122 123 0
-121 -122 -123 0
337 338 339 121 0
337 338 -339 -121 0
337 -338 339 -121 0
337 -338 -339 121 0
-337 338 339 -121 0
-337 338 -339 121 0
-337 -338 339 121 0
-337 -338 -339 -121 0
553 554 555 121 0
553 554 -555 -121 0
553 -554 555 -121 0
553 -554 -555 121 0
-553 554 555 -121 0
-553 554 -555 121 0
-553 -554 555 121 0
-553 -554 -555 -121 0
123 124 -135 0
123 -124 135 0
-123 124 135 0
-123 -124 -135 0
339 340 351 135 0
339 340 -351 -135 0
339 -340 351 -135 0
339 -340 -351 135 0
-339 340 351 -135 0
-339 340 -351 135 0
-339 -340 351 135 0
-339 -340 -351 -135 0
555 556 567 135 0
555 556 -567 -135 0
555 -556 567 -135 0
555 -556 -567 135 0
-555 556 567 -135 0
-555 556 -567 135 0
-555 -556 567 135 0
-555 -556 -567 -135 0
124 125 -128 0
124 -125 128 0
-124 125 128 0
-124 -125 -128 0
340 341 -344 0
340 -341 344 0
-340 341 344 0
-340 -341 -344 0
556 557 -560 0
556 -557 560 0
-556 557 560 0
-556 -557 -560 0
125 126 -131 0
125 -126 131 0
-125 126 131 0
-125 -126 -131 0
341 342 347 -126 0
341 342 -347 126 0
341 -342 347 126 0
341 -342 -347 -126 0
-341 342 347 126 0
-341 342 -347 -126 0
-341 -342 347 -126 0
-341 -342 -347 126 0
557 558 563 -126 0
557 558 -563 126 0
557 -558 563 126 0
557 -558 -563 -126 0
-557 558 563 126 0
-557 558 -563 -126 0
-557 -558 563 -126 0
-557 -558 -563 126 0
126 127 -154 0
126 -127 154 0
-126 127 154 0
-126 -127 -154 0
342 343 370 -126 0
342 343 -370 126 0
342 -343 370 126 0
342 -343 -370 -126 0
-342 343 370 126 0
-342 343 -370 -126 0
-342 -343 370 -126 0
-342 -343 -370 126 0
558 559 586 -126 0
558 559 -586 126 0
558 -559 586 126 0
558 -559 -586 -126 0
-558 559 586 126 0
-558 559 -586 -126 0
-558 -559 586 -126 0
-558 -559 -586 126 0
127 129 -133 0
127 -129 133 0
-127 129 133 0
-127 -129 -133 0
343 345 349 129 0
343 345 -349 -129 0
343 -345 349 -129 0
343 -345 -349 129 0
-343 345 349 -129 0
-343 345 -349 129 0
-343 -345 349 129 0
-343 -345 -349 -129 0
559 561 565 129 0
559 561 -565 -129 0
559 -561 565 -129 0
559 -561 -565 129 0
-559 561 565 -129 0
-559 561 -565 129 0
-559 -561 565 129 0
-559 -561 -565 -129 0
128 129 -130 0
128 -129 130 0
-128 129 130 0
-128 -129 -130 0
344 345 346 129 130 0
344 345 346 -129 -130 0
344 345 -346 129 -130 0
344 345 -346 -129 130 0
344 -345 346 129 -130 0
344 -345 346 -129 130 0
344 -345 -346 129 130 0
344 -345 -346 -129 -130 0
-344 345 346 129 -130 0
-344 345 346 -129 130 0
-344 345 -346 129 130 0
-344 345 -346 -129 -130 0
-344 -345 346 129 130 0
-344 -345 346 -129 -130 0
-344 -345 -346 129 -130 0
-344 -345 -346 -129 130 0
560 561 562 129 130 0
560 561 562 -129 -130 0
560 561 -562 129 -130 0
560 561 -562 -129 130 0
560 -561 562 129 -130 0
560 -561 562 -129 130 0
560 -561 -562 129 130 0
560 -561 -562 -129 -130 0
-560 561 562 129 -130 0
-560 561 562 -129 130 0
-560 561 -562 129 130 0
-560 561 -562 -129 -130 0
-560 -561 562 129 130 0
-560 -561 562 -129 -130 0
-560 -561 -562 129 -130 0
-560 -561 -562 -129 130 0
130 132 -156 0
130 -132 156 0
-130 132 156 0
-130 -132 -156 0
346 348 372 -130 0
346 348 -372 130 0
346 -348 372 130 0
346 -348 -372 -130 0
-346 348 372 130 0
-346 348 -372 -130 0
-346 -348 372 -130 0
-346 -348 -372 130 0
562 564 588 -130 0
562 564 -588 130 0
562 -564 588 130 0
562 -564 -588 -130 0
-562 564 588 130 0
-562 564 -588 -130 0
-562 -564 588 -130 0
-562 -564 -588 130 0
131 132 -134 0
131 -132 134 0
-131 132 134 0
-131 -132 -134 0
347 348 -350 0
347 -348 350 0
-347 348 350 0
-347 -348 -350 0
563 564 -566 0
563 -564 566 0
-563 564 566 0
-563 -564 -566 0
133 134 -136 0
133 -134 136 0
-133 134 136 0
-133 -134 -136 0
349 350 -352 0
349 -350 352 0
-349 350 352 0
-349 -350 -352 0
565 566 -568 0
565 -566 568 0
-565 566 568 0
-565 -566 -568 0
135 136 -138 0
135 -136 138 0
-135 136 138 0
-135 -136 -138 0
351 352 354 135 0
351 352 -354 -135 0
351 -352 354 -135 0
351 -352 -354 135 0
-351 352 354 -135 0
-351 352 -354 135 0
-351 -352 354 135 0
-351 -352 -354 -135 0
567 568 570 135 0
567 568 -570 -135 0
567 -568 570 -135 0
567 -568 -570 135 0
-567 568 570 -135 0
-567 568 -570 135 0
-567 -568 570 135 0
-567 -568 -570 -135 0
137 138 -149 0
137 -138 149 0
-137 138 149 0
-137 -138 -149 0
353 354 -365 0
353 -354 365 0
-353 354 365 0
-353 -354 -365 0
569 570 -581 0
569 -570 581 0
-569 570 581 0
-569 -570 -581 0
139 141 -158 0
139 -141 158 0
-139 141 158 0
-139 -141 -158 0
355 357 374 -141 0
355 357 -374 141 0
355 -357 374 141 0
355 -357 -374 -141 0
-355 357 374 141 0
-355 357 -374 -141 0
-355 -357 374 -141 0
-355 -357 -374 141 0
571 573 590 -141 0
571 573 -590 141 0
571 -573 590 141 0
571 -573 -590 -141 0
-571 573 590 141 0
-571 573 -590 -141 0
-571 -573 590 -141 0
-571 -573 -590 141 0
140 141 -143 0
140 -141 143 0
-140 141 143 0
-140 -141 -143 0
356 357 359 -141 0
356 357 -359 141 0
356 -357 359 141 0
356 -357 -359 -141 0
-356 357 359 141 0
-356 357 -359 -141 0
-356 -357 359 -141 0
-356 -357 -359 141 0
572 573 575 -141 0
572 573 -575 141 0
572 -573 575 141 0
572 -573 -575 -141 0
-572 573 575 141 0
-572 573 -575 -141 0
-572 -573 575 -141 0
-572 -573 -575 141 0
142 143 -145 0
142 -143 145 0
-142 143 145 0
-142 -143 -145 0
358 359 361 -145 0
358 359 -361 145 0
358 -359 361 145 0
358 -359 -361 -145 0
-358 359 361 145 0
-358 359 -361 -145 0
-358 -359 361 -145 0
-358 -359 -361 145 0
574 575 577 -145 0
574 575 -577 145 0
574 -575 577 145 0
574 -575 -577 -145 0
-574 575 577 145 0
-574 575 -577 -145 0
-574 -575 577 -145 0
-574 -575 -577 145 0
144 145 -147 0
144 -145 147 0
-144 145 147 0
-144 -145 -147 0
360 361 363 -145 0
360 361 -363 145 0
360 -361 363 145 0
360 -361 -363 -145 0
-360 361 363 145 0
-360 361 -363 -145 0
-360 -361 363 -145 0
-360 -361 -363 145 0
576 577 579 -145 0
576 577 -579 145 0
576 -577 579 145 0
576 -577 -579 -145 0
-576 577 579 145 0
-576 577 -579 -145 0
-576 -577 579 -145 0
-576 -577 -579 145 0
146 147 -209 0
146 -147 209 0
-146 147 209 0
-146 -147 -209 0
362 363 425 209 0
362 363 -425 -209 0
362 -363 425 -209 0
362 -363 -425 209 0
-362 363 425 -209 0
-362 363 -425 209 0
-362 -363 425 209 0
-362 -363 -425 -209 0
578 579 641 209 0
578 579 -641 -209 0
578 -579 641 -209 0
578 -579 -641 209 0
-578 579 641 -209 0
-578 579 -641 209 0
-578 -579 641 209 0
-578 -579 -641 -209 0
148 150 -212 0
148 -150 212 0
-148 150 212 0
-148 -150 -212 0
364 366 428 148 0
364 366 -428 -148 0
364 -366 428 -148 0
364 -366 -428 148 0
-364 366 428 -148 0
-364 366 -428 148 0
-364 -366 428 148 0
-364 -366 -428 -148 0
580 582 644 148 0
580 582 -644 -148 0
580 -582 644 -148 0
580 -582 -644 148 0
-580 582 644 -148 0
-580 582 -644 148 0
-580 -582 644 148 0
-580 -582 -644 -148 0
149 150 -151 0
149 -150 151 0
-149 150 151 0
-149 -150 -151 0
365 366 -367 0
365 -366 367 0
-365 366 367 0
-365 -366 -367 0
581 582 -583 0
581 -582 583 0
-581 582 583 0
-581 -582 -583 0
151 153 -159 0
151 -153 159 0
-151 153 159 0
-151 -153 -159 0
367 369 -375 0
367 -369 375 0
-367 369 375 0
-367 -369 -375 0
583 585 -591 0
583 -585 591 0
-583 585 591 0
-583 -585 -591 0
152 153 -155 0
152 -153 155 0
-152 153 155 0
-152 -153 -155 0
368 369 371 155 0
368 369 -371 -155 0
368 -369 371 -155 0
368 -369 -371 155 0
-368 369 371 -155 0
-368 369 -371 155 0
-368 -369 371 155 0
-368 -369 -371 -155 0
584 585 587 155 0
584 585 -587 -155 0
584 -585 587 -155 0
584 -585 -587 155 0
-584 585 587 -155 0
-584 585 -587 155 0
-584 -585 587 155 0
-584 -585 -587 -155 0
154 155 -157 0
154 -155 157 0
-154 155 157 0
-154 -155 -157 0
370 371 373 155 0
370 371 -373 -155 0
370 -371 373 -155 0
370 -371 -373 155 0
-370 371 373 -155 0
-370 371 -373 155 0
-370 -371 373 155 0
-370 -371 -373 -155 0
586 587 589 155 0
586 587 -589 -155 0
586 -587 589 -155 0
586 -587 -589 155 0
-586 587 589 -155 0
-586 587 -589 155 0
-586 -587 589 155 0
-586 -587 -589 -155 0
156 157 -160 0
156 -157 160 0
-156 157 160 0
-156 -157 -160 0
372 373 376 160 0
372 373 -376 -160 0
372 -373 376 -160 0
372 -373 -376 160 0
-372 373 376 -160 0
-372 373 -376 160 0
-372 -373 376 160 0
-372 -373 -376 -160 0
588 589 592 160 0
588 589 -592 -160 0
588 -589 592 -160 0
588 -589 -592 160 0
-588 589 592 -160 0
-588 589 -592 160 0
-588 -589 592 160 0
-588 -589 -592 -160 0
158 159 -160 0
158 -159 160 0
-158 159 160 0
-158 -159 -160 0
374 375 376 160 0
374 375 -376 -160 0
374 -375 376 -160 0
374 -375 -376 160 0
-374 375 376 -160 0
-374 375 -376 160 0
-374 -375 376 160 0
-374 -375 -376 -160 0
590 591 592 160 0
590 591 -592 -160 0
590 -591 592 -160 0
590 -591 -592 160 0
-590 591 592 -160 0
-590 591 -592 160 0
-590 -591 592 160 0
-590 -591 -592 -160 0
161 165 -193 0
161 -165 193 0
-161 165 193 0
-161 -165 -193 0
377 381 409 193 0
377 381 -409 -193 0
377 -381 409 -193 0
377 -381 -409 193 0
-377 381 409 -193 0
-377 381 -409 193 0
-377 -381 409 193 0
-377 -381 -409 -193 0
593 597 625 193 0
593 597 -625 -193 0
593 -597 625 -193 0
593 -597 -625 193 0
-593 597 625 -193 0
-593 597 -625 193 0
-593 -597 625 193 0
-593 -597 -625 -193 0
161 163 -196 0
161 -163 196 0
-161 163 196 0
-161 -163 -196 0
377 379 -412 0
377 -379 412 0
-377 379 412 0
-377 -379 -412 0
593 595 -628 0
593 -595 628 0
-593 595 628 0
-593 -595 -628 0
162 163 -207 0
162 -163 207 0
-162 163 207 0
-162 -163 -207 0
378 379 423 162 207 0
378 379 423 -162 -207 0
378 379 -423 162 -207 0
378 379 -423 -162 207 0
378 -379 423 162 -207 0
378 -379 423 -162 207 0
378 -379 -423 162 207 0
378 -379 -423 -162 -207 0
-378 379 423 162 -207 0
-378 379 423 -162 207 0
-378 379 -423 162 207 0
-378 379 -423 -162 -207 0
-378 -379 423 162 207 0
-378 -379 423 -162 -207 0
-378 -379 -423 162 -207 0
-378 -379 -423 -162 207 0
594 595 639 162 207 0
594 595 639 -162 -207 0
594 595 -639 162 -207 0
594 595 -639 -162 207 0
594 -595 639 162 -207 0
594 -595 639 -162 207 0
594 -595 -639 162 207 0
594 -595 -639 -162 -207 0
-594 595 639 162 -207 0
-594 595 639 -162 207 0
-594 595 -639 162 207 0
-594 595 -639 -162 -207 0
-594 -595 639 162 207 0
-594 -595 639 -162 -207 0
-594 -595 -639 162 -207 0
-594 -595 -639 -162 207 0
164 166 -194 0
164 -166 194 0
-164 166 194 0
-164 -166 -194 0
380 382 410 -166 0
380 382 -410 166 0
380 -382 410 166 0
380 -382 -410 -166 0
-380 382 410 166 0
-380 382 -410 -166 0
-380 -382 410 -166 0
-380 -382 -410 166 0
596 598 626 -166 0
596 598 -626 166 0
596 -598 626 166 0
596 -598 -626 -166 0
-596 598 626 166 0
-596 598 -626 -166 0
-596 -598 626 -166 0
-596 -598 -626 166 0
165 166 -202 0
165 -166 202 0
-165 166 202 0
-165 -166 -202 0
381 382 418 -166 0
381 382 -418 166 0
381 -382 418 166 0
381 -382 -418 -166 0
-381 382 418 166 0
-381 382 -418 -166 0
-381 -382 418 -166 0
-381 -382 -418 166 0
597 598 634 -166 0
597 598 -634 166 0
597 -598 634 166 0
597 -598 -634 -166 0
-597 598 634 166 0
-597 598 -634 -166 0
-597 -598 634 -166 0
-597 -598 -634 166 0
167 170 -191 0
167 -170 191 0
-167 170 191 0
-167 -170 -191 0
383 386 407 -170 0
383 386 -407 170 0
383 -386 407 170 0
383 -386 -407 -170 0
-383 386 407 170 0
-383 386 -407 -170 0
-383 -386 407 -170 0
-383 -386 -407 170 0
599 602 623 -170 0
599 602 -623 170 0
599 -602 623 170 0
599 -602 -623 -170 0
-599 602 623 170 0
-599 602 -623 -170 0
-599 -602 623 -170 0
-599 -602 -623 170 0
167 168 -173 0
167 -168 173 0
-167 168 173 0
-167 -168 -173 0
383 384 389 -168 0
383 384 -389 168 0
383 -384 389 168 0
383 -384 -389 -168 0
-383 384 389 168 0
-383 384 -389 -168 0
-383 -384 389 -168 0
-383 -384 -389 168 0
599 600 605 -168 0
599 600 -605 168 0
599 -600 605 168 0
599 -600 -605 -168 0
-599 600 605 168 0
-599 600 -605 -168 0
-599 -600 605 -168 0
-599 -600 -605 168 0
168 169 -198 0
168 -169 198 0
-168 169 198 0
-168 -169 -198 0
384 385 414 -168 0
384 385 -414 168 0
384 -385 414 168 0
384 -385 -414 -168 0
-384 385 414 168 0
-384 385 -414 -168 0
-384 -385 414 -168 0
-384 -385 -414 168 0
600 601 630 -168 0
600 601 -630 168 0
600 -601 630 168 0
600 -601 -630 -168 0
-600 601 630 168 0
-600 601 -630 -168 0
-600 -601 630 -168 0
-600 -601 -630 168 0
169 171 -175 0
169 -171 175 0
-169 171 175 0
-169 -171 -175 0
385 387 391 175 0
385 387 -391 -175 0
385 -387 391 -175 0
385 -387 -391 175 0
-385 387 391 -175 0
-385 387 -391 175 0
-385 -387 391 175 0
-385 -387 -391 -175 0
601 603 607 175 0
601 603 -607 -175 0
601 -603 607 -175 0
601 -603 -607 175 0
-601 603 607 -175 0
-601 603 -607 175 0
-601 -603 607 175 0
-601 -603 -607 -175 0
170 171 -172 0
170 -171 172 0
-170 171 172 0
-170 -171 -172 0
386 387 388 -170 0
386 387 -388 170 0
386 -387 388 170 0
386 -387 -388 -170 0
-386 387 388 170 0
-386 387 -388 -170 0
-386 -387 388 -170 0
-386 -387 -388 170 0
602 603 604 -170 0
602 603 -604 170 0
602 -603 604 170 0
602 -603 -604 -170 0
-602 603 604 170 0
-602 603 -604 -170 0
-602 -603 604 -170 0
-602 -603 -604 170 0
172 174 -200 0
172 -174 200 0
-172 174 200 0
-172 -174 -200 0
388 390 -416 0
388 -390 416 0
-388 390 416 0
-388 -390 -416 0
604 606 -632 0
604 -606 632 0
-604 606 632 0
-604 -606 -632 0
173 174 -176 0
173 -174 176 0
-173 174 176 0
-173 -174 -176 0
389 390 -392 0
389 -390 392 0
-389 390 392 0
-389 -390 -392 0
605 606 -608 0
605 -606 608 0
-605 606 608 0
-605 -606 -608 0
175 176 -177 0
175 -176 177 0
-175 176 177 0
-175 -176 -177 0
391 392 393 175 0
391 392 -393 -175 0
391 -392 393 -175 0
391 -392 -393 175 0
-391 392 393 -175 0
-391 392 -393 175 0
-391 -392 393 175 0
-391 -392 -393 -175 0
607 608 609 175 0
607 608 -609 -175 0
607 -608 609 -175 0
607 -608 -609 175 0
-607 608 609 -175 0
-607 608 -609 175 0
-607 -608 609 175 0
-607 -608 -609 -175 0
177 178 -189 0
177 -178 189 0
-177 178 189 0
-177 -178 -189 0
393 394 405 178 0
393 394 -405 -178 0
393 -394 405 -178 0
393 -394 -405 178 0
-393 394 405 -178 0
-393 394 -405 178 0
-393 -394 405 178 0
-393 -394 -405 -178 0
609 610 621 178 0
609 610 -621 -178 0
609 -610 621 -178 0
609 -610 -621 178 0
-609 610 621 -178 0
-609 610 -621 178 0
-609 -610 621 178 0
-609 -610 -621 -178 0
178 179 -182 0
178 -179 182 0
-178 179 182 0
-178 -179 -182 0
394 395 398 178 0
394 395 -398 -178 0
394 -395 398 -178 0
394 -395 -398 178 0
-394 395 398 -178 0
-394 395 -398 178 0
-394 -395 398 178 0
-394 -395 -398 -178 0
610 611 614 178 0
610 611 -614 -178 0
610 -611 614 -178 0
610 -611 -614 178 0
-610 611 614 -178 0
-610 611 -614 178 0
-610 -611 614 178 0
-610 -611 -614 -178 0
179 180 -185 0
179 -180 185 0
-179 180 185 0
-179 -180 -185 0
395 396 401 185 0
395 396 -401 -185 0
395 -396 401 -185 0
395 -396 -401 185 0
-395 396 401 -185 0
-395 396 -401 185 0
-395 -396 401 185 0
-395 -396 -401 -185 0
611 612 617 185 0
611 612 -617 -185 0
611 -612 617 -185 0
611 -612 -617 185 0
-611 612 617 -185 0
-611 612 -617 185 0
-611 -612 617 185 0
-611 -612 -617 -185 0
180 181 -210 0
180 -181 210 0
-180 181 210 0
-180 -181 -210 0
396 397 426 -181 0
396 397 -426 181 0
396 -397 426 181 0
396 -397 -426 -181 0
-396 397 426 181 0
-396 397 -426 -181 0
-396 -397 426 -181 0
-396 -397 -426 181 0
612 613 642 -181 0
612 613 -642 181 0
612 -613 642 181 0
612 -613 -642 -181 0
-612 613 642 181 0
-612 613 -642 -181 0
-612 -613 642 -181 0
-612 -613 -642 181 0
181 183 -187 0
181 -183 187 0
-181 183 187 0
-181 -183 -187 0
397 399 403 -181 0
397 399 -403 181 0
397 -399 403 181 0
397 -399 -403 -181 0
-397 399 403 181 0
-397 399 -403 -181 0
-397 -399 403 -181 0
-397 -399 -403 181 0
613 615 619 -181 0
613 615 -619 181 0
613 -615 619 181 0
613 -615 -619 -181 0
-613 615 619 181 0
-613 615 -619 -181 0
-613 -615 619 -181 0
-613 -615 -619 181 0
182 183 -184 0
182 -183 184 0
-182 183 184 0
-182 -183 -184 0
398 399 400 -184 0
398 399 -400 184 0
398 -399 400 184 0
398 -399 -400 -184 0
-398 399 400 184 0
-398 399 -400 -184 0
-398 -399 400 -184 0
-398 -399 -400 184 0
614 615 616 -184 0
614 615 -616 184 0
614 -615 616 184 0
614 -615 -616 -184 0
-614 615 616 184 0
-614 615 -616 -184 0
-614 -615 616 -184 0
-614 -615 -616 184 0
184 186 -213 0
184 -186 213 0
-184 186 213 0
-184 -186 -213 0
400 402 429 -184 0
400 402 -429 184 0
400 -402 429 184 0
400 -402 -429 -184 0
-400 402 429 184 0
-400 402 -429 -184 0
-400 -402 429 -184 0
-400 -402 -429 184 0
616 618 645 -184 0
616 618 -645 184 0
616 -618 645 184 0
616 -618 -645 -184 0
-616 618 645 184 0
-616 618 -645 -184 0
-616 -618 645 -184 0
-616 -618 -645 184 0
185 186 -188 0
185 -186 188 0
-185 186 188 0
-185 -186 -188 0
401 402 404 185 0
401 402 -404 -185 0
401 -402 404 -185 0
401 -402 -404 185 0
-401 402 404 -185 0
-401 402 -404 185 0
-401 -402 404 185 0
-401 -402 -404 -185 0
617 618 620 185 0
617 618 -620 -185 0
617 -618 620 -185 0
617 -618 -620 185 0
-617 618 620 -185 0
-617 618 -620 185 0
-617 -618 620 185 0
-617 -618 -620 -185 0
187 188 -190 0
187 -188 190 0
-187 188 190 0
-187 -188 -190 0
403 404 406 190 0
403 404 -406 -190 0
403 -404 406 -190 0
403 -404 -406 190 0
-403 404 406 -190 0
-403 404 -406 190 0
-403 -404 406 190 0
-403 -404 -406 -190 0
619 620 622 190 0
619 620 -622 -190 0
619 -620 622 -190 0
619 -620 -622 190 0
-619 620 622 -190 0
-619 620 -622 190 0
-619 -620 622 190 0
-619 -620 -622 -190 0
189 190 -192 0
189 -190 192 0
-189 190 192 0
-189 -190 -192 0
405 406 408 190 0
405 406 -408 -190 0
405 -406 408 -190 0
405 -406 -408 190 0
-405 406 408 -190 0
-405 406 -408 190 0
-405 -406 408 190 0
-405 -406 -408 -190 0
621 622 624 190 0
621 622 -624 -190 0
621 -622 624 -190 0
621 -622 -624 190 0
-621 622 624 -190 0
-621 622 -624 190 0
-621 -622 624 190 0
-621 -622 -624 -190 0
191 192 -204 0
191 -192 204 0
-191 192 204 0
-191 -192 -204 0
407 408 420 -204 0
407 408 -420 204 0
407 -408 420 204 0
407 -408 -420 -204 0
-407 408 420 204 0
-407 408 -420 -204 0
-407 -408 420 -204 0
-407 -408 -420 204 0
623 624 636 -204 0
623 624 -636 204 0
623 -624 636 204 0
623 -624 -636 -204 0
-623 624 636 204 0
-623 624 -636 -204 0
-623 -624 636 -204 0
-623 -624 -636 204 0
193 195 -214 0
193 -195 214 0
-193 195 214 0
-193 -195 -214 0
409 411 430 193 0
409 411 -430 -193 0
409 -411 430 -193 0
409 -411 -430 193 0
-409 411 430 -193 0
-409 411 -430 193 0
-409 -411 430 193 0
-409 -411 -430 -193 0
625 627 646 193 0
625 627 -646 -193 0
625 -627 646 -193 0
625 -627 -646 193 0
-625 627 646 -193 0
-625 627 -646 193 0
-625 -627 646 193 0
-625 -627 -646 -193 0
194 195 -197 0
194 -195 197 0
-194 195 197 0
-194 -195 -197 0
410 411 413 197 0
410 411 -413 -197 0
410 -411 413 -197 0
410 -411 -413 197 0
-410 411 413 -197 0
-410 411 -413 197 0
-410 -411 413 197 0
-410 -411 -413 -197 0
626 627 629 197 0
626 627 -629 -197 0
626 -627 629 -197 0
626 -627 -629 197 0
-626 627 629 -197 0
-626 627 -629 197 0
-626 -627 629 197 0
-626 -627 -629 -197 0
196 197 -199 0
196 -197 199 0
-196 197 199 0
-196 -197 -199 0
412 413 415 197 0
412 413 -415 -197 0
412 -413 415 -197 0
412 -413 -415 197 0
-412 413 415 -197 0
-412 413 -415 197 0
-412 -413 415 197 0
-412 -413 -415 -197 0
628 629 631 197 0
628 629 -631 -197 0
628 -629 631 -197 0
628 -629 -631 197 0
-628 629 631 -197 0
-628 629 -631 197 0
-628 -629 631 197 0
-628 -629 -631 -197 0
198 199 -201 0
198 -199 201 0
-198 199 201 0
-198 -199 -201 0
414 415 417 201 0
414 415 -417 -201 0
414 -415 417 -201 0
414 -415 -417 201 0
-414 415 417 -201 0
-414 415 -417 201 0
-414 -415 417 201 0
-414 -415 -417 -201 0
630 631 633 201 0
630 631 -633 -201 0
630 -631 633 -201 0
630 -631 -633 201 0
-630 631 633 -201 0
-630 631 -633 201 0
-630 -631 633 201 0
-630 -631 -633 -201 0
200 201 -203 0
200 -201 203 0
-200 201 203 0
-200 -201 -203 0
416 417 419 201 0
416 417 -419 -201 0
416 -417 419 -201 0
416 -417 -419 201 0
-416 417 419 -201 0
-416 417 -419 201 0
-416 -417 419 201 0
-416 -417 -419 -201 0
632 633 635 201 0
632 633 -635 -201 0
632 -633 635 -201 0
632 -633 -635 201 0
-632 633 635 -201 0
-632 633 -635 201 0
-632 -633 635 201 0
-632 -633 -635 -201 0
202 203 -205 0
202 -203 205 0
-202 203 205 0
-202 -203 -205 0
418 419 -421 0
418 -419 421 0
-418 419 421 0
-418 -419 -421 0
634 635 -637 0
634 -635 637 0
-634 635 637 0
-634 -635 -637 0
204 205 -206 0
204 -205 206 0
-204 205 206 0
-204 -205 -206 0
420 421 422 204 206 0
420 421 422 -204 -206 0
420 421 -422 204 -206 0
420 421 -422 -204 206 0
420 -421 422 204 -206 0
420 -421 422 -204 206 0
420 -421 -422 204 206 0
420 -421 -422 -204 -206 0
-420 421 422 204 -206 0
-420 421 422 -204 206 0
-420 421 -422 204 206 0
-420 421 -422 -204 -206 0
-420 -421 422 204 206 0
-420 -421 422 -204 -206 0
-420 -421 -422 204 -206 0
-420 -421 -422 -204 206 0
636 637 638 204 206 0
636 637 638 -204 -206 0
636 637 -638 204 -206 0
636 637 -638 -204 206 0
636 -637 638 204 -206 0
636 -637 638 -204 206 0
636 -637 -638 204 206 0
636 -637 -638 -204 -206 0
-636 637 638 204 -206 0
-636 637 638 -204 206 0
-636 637 -638 204 206 0
-636 637 -638 -204 -206 0
-636 -637 638 204 206 0
-636 -637 638 -204 -206 0
-636 -637 -638 204 -206 0
-636 -637 -638 -204 206 0
206 208 -215 0
206 -208 215 0
-206 208 215 0
-206 -208 -215 0
422 424 431 206 0
422 424 -431 -206 0
422 -424 431 -206 0
422 -424 -431 206 0
-422 424 431 -206 0
-422 424 -431 206 0
-422 -424 431 206 0
-422 -424 -431 -206 0
638 640 647 206 0
638 640 -647 -206 0
638 -640 647 -206 0
638 -640 -647 206 0
-638 640 647 -206 0
-638 640 -647 206 0
-638 -640 647 206 0
-638 -640 -647 -206 0
207 208 -211 0
207 -208 211 0
-207 208 211 0
-207 -208 -211 0
423 424 427 207 0
423 424 -427 -207 0
423 -424 427 -207 0
423 -424 -427 207 0
-423 424 427 -207 0
-423 424 -427 207 0
-423 -424 427 207 0
-423 -424 -427 -207 0
639 640 643 207 0
639 640 -643 -207 0
639 -640 643 -207 0
639 -640 -643 207 0
-639 640 643 -207 0
-639 640 -643 207 0
-639 -640 643 207 0
-639 -640 -643 -207 0
209 210 -211 0
209 -210 211 0
-209 210 211 0
-209 -210 -211 0
425 426 427 209 0
425 426 -427 -209 0
425 -426 427 -209 0
425 -426 -427 209 0
-425 426 427 -209 0
-425 426 -427 209 0
-425 -426 427 209 0
-425 -426 -427 -209 0
641 642 643 209 0
641 642 -643 -209 0
641 -642 643 -209 0
641 -642 -643 209 0
-641 642 643 -209 0
-641 642 -643 209 0
-641 -642 643 209 0
-641 -642 -643 -209 0
212 213 -216 0
212 -213 216 0
-212 213 216 0
-212 -213 -216 0
428 429 432 -216 0
428 429 -432 216 0
428 -429 432 216 0
428 -429 -432 -216 0
-428 429 432 216 0
-428 429 -432 -216 0
-428 -429 432 -216 0
-428 -429 -432 216 0
644 645 648 -216 0
644 645 -648 216 0
644 -645 648 216 0
644 -645 -648 -216 0
-644 645 648 216 0
-644 645 -648 -216 0
-644 -645 648 -216 0
-644 -645 -648 216 0
214 215 -216 0
214 -215 216 0
-214 215 216 0
-214 -215 -216 0
430 431 432 -216 0
430 431 -432 216 0
430 -431 432 216 0
430 -431 -432 -216 0
-430 431 432 216 0
-430 431 -432 -216 0
-430 -431 432 -216 0
-430 -431 -432 216 0
646 647 648 -216 0
646 647 -648 216 0
646 -647 648 216 0
646 -647 -648 -216 0
-646 647 648 216 0
-646 647 -648 -216 0
-646 -647 648 -216 0
-646 -647 -648 216 0
