c fano-binary-cycle-repair-v1
c SAT iff the named normalized incidence has a repair
c switch=2 target=4 other=6
p cnf 648 3181
-217 -433 0
-1 -217 0
-1 -433 0
-218 -434 0
2 -218 0
2 -434 0
-219 -435 0
-3 -219 0
-3 -435 0
-220 -436 0
-221 -437 0
-222 -438 0
-6 -222 0
-6 -438 0
-223 -439 0
7 -223 0
7 -439 0
-224 -440 0
-8 -224 0
-8 -440 0
-225 -441 0
9 -225 0
9 -441 0
-226 -442 0
-227 -443 0
-12 0
-228 -444 0
-229 -445 0
-230 -446 0
-231 -447 0
-16 0
-232 -448 0
-233 -449 0
-234 -450 0
-235 -451 0
19 -235 0
19 -451 0
-20 0
-236 -452 0
-21 0
-237 -453 0
-238 -454 0
-22 -238 0
-22 -454 0
-239 -455 0
23 -239 0
23 -455 0
-240 -456 0
-241 -457 0
-25 -241 0
-25 -457 0
-242 -458 0
26 -242 0
26 -458 0
-243 -459 0
-244 -460 0
-245 -461 0
-30 0
-246 -462 0
-247 -463 0
-31 -247 0
-31 -463 0
-248 -464 0
-249 -465 0
-34 0
-250 -466 0
-35 0
-251 -467 0
-252 -468 0
-37 0
-253 -469 0
-254 -470 0
-39 0
-255 -471 0
-256 -472 0
-257 -473 0
41 -257 0
41 -473 0
-258 -474 0
-259 -475 0
-44 0
-260 -476 0
-261 -477 0
-262 -478 0
-46 -262 0
-46 -478 0
-263 -479 0
-48 0
-264 -480 0
-265 -481 0
-266 -482 0
-267 -483 0
-51 -267 0
-51 -483 0
-268 -484 0
-269 -485 0
-270 -486 0
-271 -487 0
-272 -488 0
-273 -489 0
-274 -490 0
-58 -274 0
-58 -490 0
-275 -491 0
-276 -492 0
-60 -276 0
-60 -492 0
-61 0
-277 -493 0
-278 -494 0
-279 -495 0
-280 -496 0
-281 -497 0
65 -281 0
65 -497 0
-282 -498 0
-283 -499 0
-284 -500 0
68 -284 0
68 -500 0
-285 -501 0
-286 -502 0
-71 0
-287 -503 0
-288 -504 0
-72 -288 0
-72 -504 0
-289 -505 0
73 -289 0
73 -505 0
-290 -506 0
-74 -290 0
-74 -506 0
-291 -507 0
-292 -508 0
-293 -509 0
-294 -510 0
-78 -294 0
-78 -510 0
-295 -511 0
-296 -512 0
-297 -513 0
-298 -514 0
-82 -298 0
-82 -514 0
-299 -515 0
83 -299 0
83 -515 0
-300 -516 0
-301 -517 0
85 -301 0
85 -517 0
-302 -518 0
86 -302 0
86 -518 0
-303 -519 0
-304 -520 0
88 -304 0
88 -520 0
-305 -521 0
-306 -522 0
-307 -523 0
-308 -524 0
-309 -525 0
93 -309 0
93 -525 0
-94 0
-310 -526 0
-311 -527 0
-312 -528 0
-313 -529 0
-314 -530 0
98 -314 0
98 -530 0
-315 -531 0
-316 -532 0
-100 -316 0
-100 -532 0
-101 0
-317 -533 0
-318 -534 0
-319 -535 0
-320 -536 0
-321 -537 0
-106 0
-322 -538 0
-323 -539 0
-107 -323 0
-107 -539 0
-324 -540 0
-325 -541 0
-109 -325 0
-109 -541 0
-326 -542 0
110 -326 0
110 -542 0
-327 -543 0
-328 -544 0
-329 -545 0
-330 -546 0
-331 -547 0
115 -331 0
115 -547 0
-332 -548 0
-333 -549 0
-118 0
-334 -550 0
-335 -551 0
-336 -552 0
-120 -336 0
-120 -552 0
-337 -553 0
-338 -554 0
-123 0
-339 -555 0
-340 -556 0
-341 -557 0
-342 -558 0
-343 -559 0
127 -343 0
127 -559 0
-344 -560 0
-128 -344 0
-128 -560 0
-345 -561 0
-346 -562 0
-131 0
-347 -563 0
-348 -564 0
132 -348 0
132 -564 0
-349 -565 0
-350 -566 0
-134 -350 0
-134 -566 0
-351 -567 0
-352 -568 0
-353 -569 0
-137 -353 0
-137 -569 0
-138 0
-354 -570 0
-139 0
-355 -571 0
-356 -572 0
-357 -573 0
-358 -574 0
-359 -575 0
143 -359 0
143 -575 0
-360 -576 0
-361 -577 0
-362 -578 0
-147 0
-363 -579 0
-364 -580 0
-365 -581 0
149 -365 0
149 -581 0
-150 0
-366 -582 0
-367 -583 0
-151 -367 0
-151 -583 0
-368 -584 0
-153 0
-369 -585 0
-370 -586 0
-371 -587 0
-372 -588 0
-157 0
-373 -589 0
-374 -590 0
-375 -591 0
159 -375 0
159 -591 0
-376 -592 0
-377 -593 0
-378 -594 0
-379 -595 0
-163 -379 0
-163 -595 0
-380 -596 0
-381 -597 0
165 -381 0
165 -597 0
-382 -598 0
-383 -599 0
167 -383 0
167 -599 0
-384 -600 0
-385 -601 0
169 -385 0
169 -601 0
-386 -602 0
-387 -603 0
-172 0
-388 -604 0
-389 -605 0
-390 -606 0
-174 -390 0
-174 -606 0
-391 -607 0
-392 -608 0
-393 -609 0
177 -393 0
177 -609 0
-394 -610 0
-179 0
-395 -611 0
-396 -612 0
-397 -613 0
-398 -614 0
-399 -615 0
183 -399 0
183 -615 0
-400 -616 0
-401 -617 0
-402 -618 0
-403 -619 0
-188 0
-404 -620 0
-405 -621 0
-406 -622 0
-407 -623 0
-408 -624 0
192 -408 0
192 -624 0
-409 -625 0
-194 0
-410 -626 0
-411 -627 0
-412 -628 0
-413 -629 0
-414 -630 0
-199 0
-415 -631 0
-416 -632 0
200 -416 0
200 -632 0
-417 -633 0
-418 -634 0
-419 -635 0
-420 -636 0
-421 -637 0
-205 -421 0
-205 -637 0
-422 -638 0
-423 -639 0
-424 -640 0
208 -424 0
208 -640 0
-425 -641 0
-426 -642 0
210 -426 0
210 -642 0
-427 -643 0
-428 -644 0
-429 -645 0
213 -429 0
213 -645 0
-214 0
-430 -646 0
-431 -647 0
-432 -648 0
1 4 -32 0
1 -4 32 0
-1 4 32 0
-1 -4 -32 0
217 220 248 -1 0
217 220 -248 1 0
217 -220 248 1 0
217 -220 -248 -1 0
-217 220 248 1 0
-217 220 -248 -1 0
-217 -220 248 -1 0
-217 -220 -248 1 0
433 436 464 -1 0
433 436 -464 1 0
433 -436 464 1 0
433 -436 -464 -1 0
-433 436 464 1 0
-433 436 -464 -1 0
-433 -436 464 -1 0
-433 -436 -464 1 0
1 2 -35 0
1 -2 35 0
-1 2 35 0
-1 -2 -35 0
217 218 251 1 2 0
217 218 251 -1 -2 0
217 218 -251 1 -2 0
217 218 -251 -1 2 0
217 -218 251 1 -2 0
217 -218 251 -1 2 0
217 -218 -251 1 2 0
217 -218 -251 -1 -2 0
-217 218 251 1 -2 0
-217 218 251 -1 2 0
-217 218 -251 1 2 0
-217 218 -251 -1 -2 0
-217 -218 251 1 2 0
-217 -218 251 -1 -2 0
-217 -218 -251 1 -2 0
-217 -218 -251 -1 2 0
433 434 467 1 2 0
433 434 467 -1 -2 0
433 434 -467 1 -2 0
433 434 -467 -1 2 0
433 -434 467 1 -2 0
433 -434 467 -1 2 0
433 -434 -467 1 2 0
433 -434 -467 -1 -2 0
-433 434 467 1 -2 0
-433 434 467 -1 2 0
-433 434 -467 1 2 0
-433 434 -467 -1 -2 0
-433 -434 467 1 2 0
-433 -434 467 -1 -2 0
-433 -434 -467 1 -2 0
-433 -434 -467 -1 2 0
2 3 -44 0
2 -3 44 0
-2 3 44 0
-2 -3 -44 0
218 219 260 2 3 0
218 219 260 -2 -3 0
218 219 -260 2 -3 0
218 219 -260 -2 3 0
218 -219 260 2 -3 0
218 -219 260 -2 3 0
218 -219 -260 2 3 0
218 -219 -260 -2 -3 0
-218 219 260 2 -3 0
-218 219 260 -2 3 0
-218 219 -260 2 3 0
-218 219 -260 -2 -3 0
-218 -219 260 2 3 0
-218 -219 260 -2 -3 0
-218 -219 -260 2 -3 0
-218 -219 -260 -2 3 0
434 435 476 2 3 0
434 435 476 -2 -3 0
434 435 -476 2 -3 0
434 435 -476 -2 3 0
434 -435 476 2 -3 0
434 -435 476 -2 3 0
434 -435 -476 2 3 0
434 -435 -476 -2 -3 0
-434 435 476 2 -3 0
-434 435 476 -2 3 0
-434 435 -476 2 3 0
-434 435 -476 -2 -3 0
-434 -435 476 2 3 0
-434 -435 476 -2 -3 0
-434 -435 -476 2 -3 0
-434 -435 -476 -2 3 0
3 5 -33 0
3 -5 33 0
-3 5 33 0
-3 -5 -33 0
219 221 249 -3 0
219 221 -249 3 0
219 -221 249 3 0
219 -221 -249 -3 0
-219 221 249 3 0
-219 221 -249 -3 0
-219 -221 249 -3 0
-219 -221 -249 3 0
435 437 465 -3 0
435 437 -465 3 0
435 -437 465 3 0
435 -437 -465 -3 0
-435 437 465 3 0
-435 437 -465 -3 0
-435 -437 465 -3 0
-435 -437 -465 3 0
4 5 -39 0
4 -5 39 0
-4 5 39 0
-4 -5 -39 0
220 221 -255 0
220 -221 255 0
-220 221 255 0
-220 -221 -255 0
436 437 -471 0
436 -437 471 0
-436 437 471 0
-436 -437 -471 0
6 9 -30 0
6 -9 30 0
-6 9 30 0
-6 -9 -30 0
222 225 246 6 9 0
222 225 246 -6 -9 0
222 225 -246 6 -9 0
222 225 -246 -6 9 0
222 -225 246 6 -9 0
222 -225 246 -6 9 0
222 -225 -246 6 9 0
222 -225 -246 -6 -9 0
-222 225 246 6 -9 0
-222 225 246 -6 9 0
-222 225 -246 6 9 0
-222 225 -246 -6 -9 0
-222 -225 246 6 9 0
-222 -225 246 -6 -9 0
-222 -225 -246 6 -9 0
-222 -225 -246 -6 9 0
438 441 462 6 9 0
438 441 462 -6 -9 0
438 441 -462 6 -9 0
438 441 -462 -6 9 0
438 -441 462 6 -9 0
438 -441 462 -6 9 0
438 -441 -462 6 9 0
438 -441 -462 -6 -9 0
-438 441 462 6 -9 0
-438 441 462 -6 9 0
-438 441 -462 6 9 0
-438 441 -462 -6 -9 0
-438 -441 462 6 9 0
-438 -441 462 -6 -9 0
-438 -441 -462 6 -9 0
-438 -441 -462 -6 9 0
6 7 -12 0
6 -7 12 0
-6 7 12 0
-6 -7 -12 0
222 223 228 6 7 0
222 223 228 -6 -7 0
222 223 -228 6 -7 0
222 223 -228 -6 7 0
222 -223 228 6 -7 0
222 -223 228 -6 7 0
222 -223 -228 6 7 0
222 -223 -228 -6 -7 0
-222 223 228 6 -7 0
-222 223 228 -6 7 0
-222 223 -228 6 7 0
-222 223 -228 -6 -7 0
-222 -223 228 6 7 0
-222 -223 228 -6 -7 0
-222 -223 -228 6 -7 0
-222 -223 -228 -6 7 0
438 439 444 6 7 0
438 439 444 -6 -7 0
438 439 -444 6 -7 0
438 439 -444 -6 7 0
438 -439 444 6 -7 0
438 -439 444 -6 7 0
438 -439 -444 6 7 0
438 -439 -444 -6 -7 0
-438 439 444 6 -7 0
-438 439 444 -6 7 0
-438 439 -444 6 7 0
-438 439 -444 -6 -7 0
-438 -439 444 6 7 0
-438 -439 444 -6 -7 0
-438 -439 -444 6 -7 0
-438 -439 -444 -6 7 0
7 8 -37 0
7 -8 37 0
-7 8 37 0
-7 -8 -37 0
223 224 253 7 8 0
223 224 253 -7 -8 0
223 224 -253 7 -8 0
223 224 -253 -7 8 0
223 -224 253 7 -8 0
223 -224 253 -7 8 0
223 -224 -253 7 8 0
223 -224 -253 -7 -8 0
-223 224 253 7 -8 0
-223 224 253 -7 8 0
-223 224 -253 7 8 0
-223 224 -253 -7 -8 0
-223 -224 253 7 8 0
-223 -224 253 -7 -8 0
-223 -224 -253 7 -8 0
-223 -224 -253 -7 8 0
439 440 469 7 8 0
439 440 469 -7 -8 0
439 440 -469 7 -8 0
439 440 -469 -7 8 0
439 -440 469 7 -8 0
439 -440 469 -7 8 0
439 -440 -469 7 8 0
439 -440 -469 -7 -8 0
-439 440 469 7 -8 0
-439 440 469 -7 8 0
-439 440 -469 7 8 0
-439 440 -469 -7 -8 0
-439 -440 469 7 8 0
-439 -440 469 -7 -8 0
-439 -440 -469 7 -8 0
-439 -440 -469 -7 8 0
8 10 -14 0
8 -10 14 0
-8 10 14 0
-8 -10 -14 0
224 226 230 -8 0
224 226 -230 8 0
224 -226 230 8 0
224 -226 -230 -8 0
-224 226 230 8 0
-224 226 -230 -8 0
-224 -226 230 -8 0
-224 -226 -230 8 0
440 442 446 -8 0
440 442 -446 8 0
440 -442 446 8 0
440 -442 -446 -8 0
-440 442 446 8 0
-440 442 -446 -8 0
-440 -442 446 -8 0
-440 -442 -446 8 0
9 10 -11 0
9 -10 11 0
-9 10 11 0
-9 -10 -11 0
225 226 227 9 0
225 226 -227 -9 0
225 -226 227 -9 0
225 -226 -227 9 0
-225 226 227 -9 0
-225 226 -227 9 0
-225 -226 227 9 0
-225 -226 -227 -9 0
441 442 443 9 0
441 442 -443 -9 0
441 -442 443 -9 0
441 -442 -443 9 0
-441 442 443 -9 0
-441 442 -443 9 0
-441 -442 443 9 0
-441 -442 -443 -9 0
11 13 -71 0
11 -13 71 0
-11 13 71 0
-11 -13 -71 0
227 229 -287 0
227 -229 287 0
-227 229 287 0
-227 -229 -287 0
443 445 -503 0
443 -445 503 0
-443 445 503 0
-443 -445 -503 0
12 13 -15 0
12 -13 15 0
-12 13 15 0
-12 -13 -15 0
228 229 -231 0
228 -229 231 0
-228 229 231 0
-228 -229 -231 0
444 445 -447 0
444 -445 447 0
-444 445 447 0
-444 -445 -447 0
14 15 -16 0
14 -15 16 0
-14 15 16 0
-14 -15 -16 0
230 231 -232 0
230 -231 232 0
-230 231 232 0
-230 -231 -232 0
446 447 -448 0
446 -447 448 0
-446 447 448 0
-446 -447 -448 0
16 17 -28 0
16 -17 28 0
-16 17 28 0
-16 -17 -28 0
232 233 -244 0
232 -233 244 0
-232 233 244 0
-232 -233 -244 0
448 449 -460 0
448 -449 460 0
-448 449 460 0
-448 -449 -460 0
17 18 -21 0
17 -18 21 0
-17 18 21 0
-17 -18 -21 0
233 234 -237 0
233 -234 237 0
-233 234 237 0
-233 -234 -237 0
449 450 -453 0
449 -450 453 0
-449 450 453 0
-449 -450 -453 0
18 19 -24 0
18 -19 24 0
-18 19 24 0
-18 -19 -24 0
234 235 240 19 0
234 235 -240 -19 0
234 -235 240 -19 0
234 -235 -240 19 0
-234 235 240 -19 0
-234 235 -240 19 0
-234 -235 240 19 0
-234 -235 -240 -19 0
450 451 456 19 0
450 451 -456 -19 0
450 -451 456 -19 0
450 -451 -456 19 0
-450 451 456 -19 0
-450 451 -456 19 0
-450 -451 456 19 0
-450 -451 -456 -19 0
19 20 -46 0
19 -20 46 0
-19 20 46 0
-19 -20 -46 0
235 236 262 19 46 0
235 236 262 -19 -46 0
235 236 -262 19 -46 0
235 236 -262 -19 46 0
235 -236 262 19 -46 0
235 -236 262 -19 46 0
235 -236 -262 19 46 0
235 -236 -262 -19 -46 0
-235 236 262 19 -46 0
-235 236 262 -19 46 0
-235 236 -262 19 46 0
-235 236 -262 -19 -46 0
-235 -236 262 19 46 0
-235 -236 262 -19 -46 0
-235 -236 -262 19 -46 0
-235 -236 -262 -19 46 0
451 452 478 19 46 0
451 452 478 -19 -46 0
451 452 -478 19 -46 0
451 452 -478 -19 46 0
451 -452 478 19 -46 0
451 -452 478 -19 46 0
451 -452 -478 19 46 0
451 -452 -478 -19 -46 0
-451 452 478 19 -46 0
-451 452 478 -19 46 0
-451 452 -478 19 46 0
-451 452 -478 -19 -46 0
-451 -452 478 19 46 0
-451 -452 478 -19 -46 0
-451 -452 -478 19 -46 0
-451 -452 -478 -19 46 0
20 22 -26 0
20 -22 26 0
-20 22 26 0
-20 -22 -26 0
236 238 242 22 26 0
236 238 242 -22 -26 0
236 238 -242 22 -26 0
236 238 -242 -22 26 0
236 -238 242 22 -26 0
236 -238 242 -22 26 0
236 -238 -242 22 26 0
236 -238 -242 -22 -26 0
-236 238 242 22 -26 0
-236 238 242 -22 26 0
-236 238 -242 22 26 0
-236 238 -242 -22 -26 0
-236 -238 242 22 26 0
-236 -238 242 -22 -26 0
-236 -238 -242 22 -26 0
-236 -238 -242 -22 26 0
452 454 458 22 26 0
452 454 458 -22 -26 0
452 454 -458 22 -26 0
452 454 -458 -22 26 0
452 -454 458 22 -26 0
452 -454 458 -22 26 0
452 -454 -458 22 26 0
452 -454 -458 -22 -26 0
-452 454 458 22 -26 0
-452 454 458 -22 26 0
-452 454 -458 22 26 0
-452 454 -458 -22 -26 0
-452 -454 458 22 26 0
-452 -454 458 -22 -26 0
-452 -454 -458 22 -26 0
-452 -454 -458 -22 26 0
21 22 -23 0
21 -22 23 0
-21 22 23 0
-21 -22 -23 0
237 238 239 22 23 0
237 238 239 -22 -23 0
237 238 -239 22 -23 0
237 238 -239 -22 23 0
237 -238 239 22 -23 0
237 -238 239 -22 23 0
237 -238 -239 22 23 0
237 -238 -239 -22 -23 0
-237 238 239 22 -23 0
-237 238 239 -22 23 0
-237 238 -239 22 23 0
-237 238 -239 -22 -23 0
-237 -238 239 22 23 0
-237 -238 239 -22 -23 0
-237 -238 -239 22 -23 0
-237 -238 -239 -22 23 0
453 454 455 22 23 0
453 454 455 -22 -23 0
453 454 -455 22 -23 0
453 454 -455 -22 23 0
453 -454 455 22 -23 0
453 -454 455 -22 23 0
453 -454 -455 22 23 0
453 -454 -455 -22 -23 0
-453 454 455 22 -23 0
-453 454 455 -22 23 0
-453 454 -455 22 23 0
-453 454 -455 -22 -23 0
-453 -454 455 22 23 0
-453 -454 455 -22 -23 0
-453 -454 -455 22 -23 0
-453 -454 -455 -22 23 0
23 25 -48 0
23 -25 48 0
-23 25 48 0
-23 -25 -48 0
239 241 264 23 25 0
239 241 264 -23 -25 0
239 241 -264 23 -25 0
239 241 -264 -23 25 0
239 -241 264 23 -25 0
239 -241 264 -23 25 0
239 -241 -264 23 25 0
239 -241 -264 -23 -25 0
-239 241 264 23 -25 0
-239 241 264 -23 25 0
-239 241 -264 23 25 0
-239 241 -264 -23 -25 0
-239 -241 264 23 25 0
-239 -241 264 -23 -25 0
-239 -241 -264 23 -25 0
-239 -241 -264 -23 25 0
455 457 480 23 25 0
455 457 480 -23 -25 0
455 457 -480 23 -25 0
455 457 -480 -23 25 0
455 -457 480 23 -25 0
455 -457 480 -23 25 0
455 -457 -480 23 25 0
455 -457 -480 -23 -25 0
-455 457 480 23 -25 0
-455 457 480 -23 25 0
-455 457 -480 23 25 0
-455 457 -480 -23 -25 0
-455 -457 480 23 25 0
-455 -457 480 -23 -25 0
-455 -457 -480 23 -25 0
-455 -457 -480 -23 25 0
24 25 -27 0
24 -25 27 0
-24 25 27 0
-24 -25 -27 0
240 241 243 -25 0
240 241 -243 25 0
240 -241 243 25 0
240 -241 -243 -25 0
-240 241 243 25 0
-240 241 -243 -25 0
-240 -241 243 -25 0
-240 -241 -243 25 0
456 457 459 -25 0
456 457 -459 25 0
456 -457 459 25 0
456 -457 -459 -25 0
-456 457 459 25 0
-456 457 -459 -25 0
-456 -457 459 -25 0
-456 -457 -459 25 0
26 27 -29 0
26 -27 29 0
-26 27 29 0
-26 -27 -29 0
242 243 245 26 0
242 243 -245 -26 0
242 -243 245 -26 0
242 -243 -245 26 0
-242 243 245 -26 0
-242 243 -245 26 0
-242 -243 245 26 0
-242 -243 -245 -26 0
458 459 461 26 0
458 459 -461 -26 0
458 -459 461 -26 0
458 -459 -461 26 0
-458 459 461 -26 0
-458 459 -461 26 0
-458 -459 461 26 0
-458 -459 -461 -26 0
28 29 -31 0
28 -29 31 0
-28 29 31 0
-28 -29 -31 0
244 245 247 -31 0
244 245 -247 31 0
244 -245 247 31 0
244 -245 -247 -31 0
-244 245 247 31 0
-244 245 -247 -31 0
-244 -245 247 -31 0
-244 -245 -247 31 0
460 461 463 -31 0
460 461 -463 31 0
460 -461 463 31 0
460 -461 -463 -31 0
-460 461 463 31 0
-460 461 -463 -31 0
-460 -461 463 -31 0
-460 -461 -463 31 0
30 31 -41 0
30 -31 41 0
-30 31 41 0
-30 -31 -41 0
246 247 257 31 41 0
246 247 257 -31 -41 0
246 247 -257 31 -41 0
246 247 -257 -31 41 0
246 -247 257 31 -41 0
246 -247 257 -31 41 0
246 -247 -257 31 41 0
246 -247 -257 -31 -41 0
-246 247 257 31 -41 0
-246 247 257 -31 41 0
-246 247 -257 31 41 0
-246 247 -257 -31 -41 0
-246 -247 257 31 41 0
-246 -247 257 -31 -41 0
-246 -247 -257 31 -41 0
-246 -247 -257 -31 41 0
462 463 473 31 41 0
462 463 473 -31 -41 0
462 463 -473 31 -41 0
462 463 -473 -31 41 0
462 -463 473 31 -41 0
462 -463 473 -31 41 0
462 -463 -473 31 41 0
462 -463 -473 -31 -41 0
-462 463 473 31 -41 0
-462 463 473 -31 41 0
-462 463 -473 31 41 0
-462 463 -473 -31 -41 0
-462 -463 473 31 41 0
-462 -463 473 -31 -41 0
-462 -463 -473 31 -41 0
-462 -463 -473 -31 41 0
32 34 -50 0
32 -34 50 0
-32 34 50 0
-32 -34 -50 0
248 250 -266 0
248 -250 266 0
-248 250 266 0
-248 -250 -266 0
464 466 -482 0
464 -466 482 0
-464 466 482 0
-464 -466 -482 0
33 34 -36 0
33 -34 36 0
-33 34 36 0
-33 -34 -36 0
249 250 -252 0
249 -250 252 0
-249 250 252 0
-249 -250 -252 0
465 466 -468 0
465 -466 468 0
-465 466 468 0
-465 -466 -468 0
35 36 -99 0
35 -36 99 0
-35 36 99 0
-35 -36 -99 0
251 252 -315 0
251 -252 315 0
-251 252 315 0
-251 -252 -315 0
467 468 -531 0
467 -468 531 0
-467 468 531 0
-467 -468 -531 0
37 38 -97 0
37 -38 97 0
-37 38 97 0
-37 -38 -97 0
253 254 -313 0
253 -254 313 0
-253 254 313 0
-253 -254 -313 0
469 470 -529 0
469 -470 529 0
-469 470 529 0
-469 -470 -529 0
38 40 -101 0
38 -40 101 0
-38 40 101 0
-38 -40 -101 0
254 256 -317 0
254 -256 317 0
-254 256 317 0
-254 -256 -317 0
470 472 -533 0
470 -472 533 0
-470 472 533 0
-470 -472 -533 0
39 40 -42 0
39 -40 42 0
-39 40 42 0
-39 -40 -42 0
255 256 -258 0
255 -256 258 0
-255 256 258 0
-255 -256 -258 0
471 472 -474 0
471 -472 474 0
-471 472 474 0
-471 -472 -474 0
41 42 -43 0
41 -42 43 0
-41 42 43 0
-41 -42 -43 0
257 258 259 41 0
257 258 -259 -41 0
257 -258 259 -41 0
257 -258 -259 41 0
-257 258 259 -41 0
-257 258 -259 41 0
-257 -258 259 41 0
-257 -258 -259 -41 0
473 474 475 41 0
473 474 -475 -41 0
473 -474 475 -41 0
473 -474 -475 41 0
-473 474 475 -41 0
-473 474 -475 41 0
-473 -474 475 41 0
-473 -474 -475 -41 0
43 45 -51 0
43 -45 51 0
-43 45 51 0
-43 -45 -51 0
259 261 267 -51 0
259 261 -267 51 0
259 -261 267 51 0
259 -261 -267 -51 0
-259 261 267 51 0
-259 261 -267 -51 0
-259 -261 267 -51 0
-259 -261 -267 51 0
475 477 483 -51 0
475 477 -483 51 0
475 -477 483 51 0
475 -477 -483 -51 0
-475 477 483 51 0
-475 477 -483 -51 0
-475 -477 483 -51 0
-475 -477 -483 51 0
44 45 -47 0
44 -45 47 0
-44 45 47 0
-44 -45 -47 0
260 261 -263 0
260 -261 263 0
-260 261 263 0
-260 -261 -263 0
476 477 -479 0
476 -477 479 0
-476 477 479 0
-476 -477 -479 0
46 47 -49 0
46 -47 49 0
-46 47 49 0
-46 -47 -49 0
262 263 265 -46 0
262 263 -265 46 0
262 -263 265 46 0
262 -263 -265 -46 0
-262 263 265 46 0
-262 263 -265 -46 0
-262 -263 265 -46 0
-262 -263 -265 46 0
478 479 481 -46 0
478 479 -481 46 0
478 -479 481 46 0
478 -479 -481 -46 0
-478 479 481 46 0
-478 479 -481 -46 0
-478 -479 481 -46 0
-478 -479 -481 46 0
48 49 -52 0
48 -49 52 0
-48 49 52 0
-48 -49 -52 0
264 265 -268 0
264 -265 268 0
-264 265 268 0
-264 -265 -268 0
480 481 -484 0
480 -481 484 0
-480 481 484 0
-480 -481 -484 0
50 51 -52 0
50 -51 52 0
-50 51 52 0
-50 -51 -52 0
266 267 268 -51 0
266 267 -268 51 0
266 -267 268 51 0
266 -267 -268 -51 0
-266 267 268 51 0
-266 267 -268 -51 0
-266 -267 268 -51 0
-266 -267 -268 51 0
482 483 484 -51 0
482 483 -484 51 0
482 -483 484 51 0
482 -483 -484 -51 0
-482 483 484 51 0
-482 483 -484 -51 0
-482 -483 484 -51 0
-482 -483 -484 51 0
53 56 -85 0
53 -56 85 0
-53 56 85 0
-53 -56 -85 0
269 272 301 85 0
269 272 -301 -85 0
269 -272 301 -85 0
269 -272 -301 85 0
-269 272 301 -85 0
-269 272 -301 85 0
-269 -272 301 85 0
-269 -272 -301 -85 0
485 488 517 85 0
485 488 -517 -85 0
485 -488 517 -85 0
485 -488 -517 85 0
-485 488 517 -85 0
-485 488 -517 85 0
-485 -488 517 85 0
-485 -488 -517 -85 0
53 54 -88 0
53 -54 88 0
-53 54 88 0
-53 -54 -88 0
269 270 304 88 0
269 270 -304 -88 0
269 -270 304 -88 0
269 -270 -304 88 0
-269 270 304 -88 0
-269 270 -304 88 0
-269 -270 304 88 0
-269 -270 -304 -88 0
485 486 520 88 0
485 486 -520 -88 0
485 -486 520 -88 0
485 -486 -520 88 0
-485 486 520 -88 0
-485 486 -520 88 0
-485 -486 520 88 0
-485 -486 -520 -88 0
54 55 -100 0
54 -55 100 0
-54 55 100 0
-54 -55 -100 0
270 271 316 -100 0
270 271 -316 100 0
270 -271 316 100 0
270 -271 -316 -100 0
-270 271 316 100 0
-270 271 -316 -100 0
-270 -271 316 -100 0
-270 -271 -316 100 0
486 487 532 -100 0
486 487 -532 100 0
486 -487 532 100 0
486 -487 -532 -100 0
-486 487 532 100 0
-486 487 -532 -100 0
-486 -487 532 -100 0
-486 -487 -532 100 0
55 57 -86 0
55 -57 86 0
-55 57 86 0
-55 -57 -86 0
271 273 302 86 0
271 273 -302 -86 0
271 -273 302 -86 0
271 -273 -302 86 0
-271 273 302 -86 0
-271 273 -302 86 0
-271 -273 302 86 0
-271 -273 -302 -86 0
487 489 518 86 0
487 489 -518 -86 0
487 -489 518 -86 0
487 -489 -518 86 0
-487 489 518 -86 0
-487 489 -518 86 0
-487 -489 518 86 0
-487 -489 -518 -86 0
56 57 -94 0
56 -57 94 0
-56 57 94 0
-56 -57 -94 0
272 273 -310 0
272 -273 310 0
-272 273 310 0
-272 -273 -310 0
488 489 -526 0
488 -489 526 0
-488 489 526 0
-488 -489 -526 0
58 61 -83 0
58 -61 83 0
-58 61 83 0
-58 -61 -83 0
274 277 299 58 83 0
274 277 299 -58 -83 0
274 277 -299 58 -83 0
274 277 -299 -58 83 0
274 -277 299 58 -83 0
274 -277 299 -58 83 0
274 -277 -299 58 83 0
274 -277 -299 -58 -83 0
-274 277 299 58 -83 0
-274 277 299 -58 83 0
-274 277 -299 58 83 0
-274 277 -299 -58 -83 0
-274 -277 299 58 83 0
-274 -277 299 -58 -83 0
-274 -277 -299 58 -83 0
-274 -277 -299 -58 83 0
490 493 515 58 83 0
490 493 515 -58 -83 0
490 493 -515 58 -83 0
490 493 -515 -58 83 0
490 -493 515 58 -83 0
490 -493 515 -58 83 0
490 -493 -515 58 83 0
490 -493 -515 -58 -83 0
-490 493 515 58 -83 0
-490 493 515 -58 83 0
-490 493 -515 58 83 0
-490 493 -515 -58 -83 0
-490 -493 515 58 83 0
-490 -493 515 -58 -83 0
-490 -493 -515 58 -83 0
-490 -493 -515 -58 83 0
58 59 -64 0
58 -59 64 0
-58 59 64 0
-58 -59 -64 0
274 275 280 -58 0
274 275 -280 58 0
274 -275 280 58 0
274 -275 -280 -58 0
-274 275 280 58 0
-274 275 -280 -58 0
-274 -275 280 -58 0
-274 -275 -280 58 0
490 491 496 -58 0
490 491 -496 58 0
490 -491 496 58 0
490 -491 -496 -58 0
-490 491 496 58 0
-490 491 -496 -58 0
-490 -491 496 -58 0
-490 -491 -496 58 0
59 60 -90 0
59 -60 90 0
-59 60 90 0
-59 -60 -90 0
275 276 306 -60 0
275 276 -306 60 0
275 -276 306 60 0
275 -276 -306 -60 0
-275 276 306 60 0
-275 276 -306 -60 0
-275 -276 306 -60 0
-275 -276 -306 60 0
491 492 522 -60 0
491 492 -522 60 0
491 -492 522 60 0
491 -492 -522 -60 0
-491 492 522 60 0
-491 492 -522 -60 0
-491 -492 522 -60 0
-491 -492 -522 60 0
60 62 -66 0
60 -62 66 0
-60 62 66 0
-60 -62 -66 0
276 278 282 -60 0
276 278 -282 60 0
276 -278 282 60 0
276 -278 -282 -60 0
-276 278 282 60 0
-276 278 -282 -60 0
-276 -278 282 -60 0
-276 -278 -282 60 0
492 494 498 -60 0
492 494 -498 60 0
492 -494 498 60 0
492 -494 -498 -60 0
-492 494 498 60 0
-492 494 -498 -60 0
-492 -494 498 -60 0
-492 -494 -498 60 0
61 62 -63 0
61 -62 63 0
-61 62 63 0
-61 -62 -63 0
277 278 -279 0
277 -278 279 0
-277 278 279 0
-277 -278 -279 0
493 494 -495 0
493 -494 495 0
-493 494 495 0
-493 -494 -495 0
63 65 -92 0
63 -65 92 0
-63 65 92 0
-63 -65 -92 0
279 281 308 65 0
279 281 -308 -65 0
279 -281 308 -65 0
279 -281 -308 65 0
-279 281 308 -65 0
-279 281 -308 65 0
-279 -281 308 65 0
-279 -281 -308 -65 0
495 497 524 65 0
495 497 -524 -65 0
495 -497 524 -65 0
495 -497 -524 65 0
-495 497 524 -65 0
-495 497 -524 65 0
-495 -497 524 65 0
-495 -497 -524 -65 0
64 65 -67 0
64 -65 67 0
-64 65 67 0
-64 -65 -67 0
280 281 283 65 0
280 281 -283 -65 0
280 -281 283 -65 0
280 -281 -283 65 0
-280 281 283 -65 0
-280 281 -283 65 0
-280 -281 283 65 0
-280 -281 -283 -65 0
496 497 499 65 0
496 497 -499 -65 0
496 -497 499 -65 0
496 -497 -499 65 0
-496 497 499 -65 0
-496 497 -499 65 0
-496 -497 499 65 0
-496 -497 -499 -65 0
66 67 -68 0
66 -67 68 0
-66 67 68 0
-66 -67 -68 0
282 283 284 68 0
282 283 -284 -68 0
282 -283 284 -68 0
282 -283 -284 68 0
-282 283 284 -68 0
-282 283 -284 68 0
-282 -283 284 68 0
-282 -283 -284 -68 0
498 499 500 68 0
498 499 -500 -68 0
498 -499 500 -68 0
498 -499 -500 68 0
-498 499 500 -68 0
-498 499 -500 68 0
-498 -499 500 68 0
-498 -499 -500 -68 0
68 69 -81 0
68 -69 81 0
-68 69 81 0
-68 -69 -81 0
284 285 297 68 0
284 285 -297 -68 0
284 -285 297 -68 0
284 -285 -297 68 0
-284 285 297 -68 0
-284 285 -297 68 0
-284 -285 297 68 0
-284 -285 -297 -68 0
500 501 513 68 0
500 501 -513 -68 0
500 -501 513 -68 0
500 -501 -513 68 0
-500 501 513 -68 0
-500 501 -513 68 0
-500 -501 513 68 0
-500 -501 -513 -68 0
69 70 -74 0
69 -70 74 0
-69 70 74 0
-69 -70 -74 0
285 286 290 -74 0
285 286 -290 74 0
285 -286 290 74 0
285 -286 -290 -74 0
-285 286 290 74 0
-285 286 -290 -74 0
-285 -286 290 -74 0
-285 -286 -290 74 0
501 502 506 -74 0
501 502 -506 74 0
501 -502 506 74 0
501 -502 -506 -74 0
-501 502 506 74 0
-501 502 -506 -74 0
-501 -502 506 -74 0
-501 -502 -506 74 0
70 72 -77 0
70 -72 77 0
-70 72 77 0
-70 -72 -77 0
286 288 293 -72 0
286 288 -293 72 0
286 -288 293 72 0
286 -288 -293 -72 0
-286 288 293 72 0
-286 288 -293 -72 0
-286 -288 293 -72 0
-286 -288 -293 72 0
502 504 509 -72 0
502 504 -509 72 0
502 -504 509 72 0
502 -504 -509 -72 0
-502 504 509 72 0
-502 504 -509 -72 0
-502 -504 509 -72 0
-502 -504 -509 72 0
71 72 -73 0
71 -72 73 0
-71 72 73 0
-71 -72 -73 0
287 288 289 72 73 0
287 288 289 -72 -73 0
287 288 -289 72 -73 0
287 288 -289 -72 73 0
287 -288 289 72 -73 0
287 -288 289 -72 73 0
287 -288 -289 72 73 0
287 -288 -289 -72 -73 0
-287 288 289 72 -73 0
-287 288 289 -72 73 0
-287 288 -289 72 73 0
-287 288 -289 -72 -73 0
-287 -288 289 72 73 0
-287 -288 289 -72 -73 0
-287 -288 -289 72 -73 0
-287 -288 -289 -72 73 0
503 504 505 72 73 0
503 504 505 -72 -73 0
503 504 -505 72 -73 0
503 504 -505 -72 73 0
503 -504 505 72 -73 0
503 -504 505 -72 73 0
503 -504 -505 72 73 0
503 -504 -505 -72 -73 0
-503 504 505 72 -73 0
-503 504 505 -72 73 0
-503 504 -505 72 73 0
-503 504 -505 -72 -73 0
-503 -504 505 72 73 0
-503 -504 505 -72 -73 0
-503 -504 -505 72 -73 0
-503 -504 -505 -72 73 0
73 75 -79 0
73 -75 79 0
-73 75 79 0
-73 -75 -79 0
289 291 295 73 0
289 291 -295 -73 0
289 -291 295 -73 0
289 -291 -295 73 0
-289 291 295 -73 0
-289 291 -295 73 0
-289 -291 295 73 0
-289 -291 -295 -73 0
505 507 511 73 0
505 507 -511 -73 0
505 -507 511 -73 0
505 -507 -511 73 0
-505 507 511 -73 0
-505 507 -511 73 0
-505 -507 511 73 0
-505 -507 -511 -73 0
74 75 -76 0
74 -75 76 0
-74 75 76 0
-74 -75 -76 0
290 291 292 -74 0
290 291 -292 74 0
290 -291 292 74 0
290 -291 -292 -74 0
-290 291 292 74 0
-290 291 -292 -74 0
-290 -291 292 -74 0
-290 -291 -292 74 0
506 507 508 -74 0
506 507 -508 74 0
506 -507 508 74 0
506 -507 -508 -74 0
-506 507 508 74 0
-506 507 -508 -74 0
-506 -507 508 -74 0
-506 -507 -508 74 0
76 78 -103 0
76 -78 103 0
-76 78 103 0
-76 -78 -103 0
292 294 319 -78 0
292 294 -319 78 0
292 -294 319 78 0
292 -294 -319 -78 0
-292 294 319 78 0
-292 294 -319 -78 0
-292 -294 319 -78 0
-292 -294 -319 78 0
508 510 535 -78 0
508 510 -535 78 0
508 -510 535 78 0
508 -510 -535 -78 0
-508 510 535 78 0
-508 510 -535 -78 0
-508 -510 535 -78 0
-508 -510 -535 78 0
77 78 -80 0
77 -78 80 0
-77 78 80 0
-77 -78 -80 0
293 294 296 -78 0
293 294 -296 78 0
293 -294 296 78 0
293 -294 -296 -78 0
-293 294 296 78 0
-293 294 -296 -78 0
-293 -294 296 -78 0
-293 -294 -296 78 0
509 510 512 -78 0
509 510 -512 78 0
509 -510 512 78 0
509 -510 -512 -78 0
-509 510 512 78 0
-509 510 -512 -78 0
-509 -510 512 -78 0
-509 -510 -512 78 0
79 80 -82 0
79 -80 82 0
-79 80 82 0
-79 -80 -82 0
295 296 298 -82 0
295 296 -298 82 0
295 -296 298 82 0
295 -296 -298 -82 0
-295 296 298 82 0
-295 296 -298 -82 0
-295 -296 298 -82 0
-295 -296 -298 82 0
511 512 514 -82 0
511 512 -514 82 0
511 -512 514 82 0
511 -512 -514 -82 0
-511 512 514 82 0
-511 512 -514 -82 0
-511 -512 514 -82 0
-511 -512 -514 82 0
81 82 -84 0
81 -82 84 0
-81 82 84 0
-81 -82 -84 0
297 298 300 -82 0
297 298 -300 82 0
297 -298 300 82 0
297 -298 -300 -82 0
-297 298 300 82 0
-297 298 -300 -82 0
-297 -298 300 -82 0
-297 -298 -300 82 0
513 514 516 -82 0
513 514 -516 82 0
513 -514 516 82 0
513 -514 -516 -82 0
-513 514 516 82 0
-513 514 -516 -82 0
-513 -514 516 -82 0
-513 -514 -516 82 0
83 84 -96 0
83 -84 96 0
-83 84 96 0
-83 -84 -96 0
299 300 312 83 0
299 300 -312 -83 0
299 -300 312 -83 0
299 -300 -312 83 0
-299 300 312 -83 0
-299 300 -312 83 0
-299 -300 312 83 0
-299 -300 -312 -83 0
515 516 528 83 0
515 516 -528 -83 0
515 -516 528 -83 0
515 -516 -528 83 0
-515 516 528 -83 0
-515 516 -528 83 0
-515 -516 528 83 0
-515 -516 -528 -83 0
85 87 -113 0
85 -87 113 0
-85 87 113 0
-85 -87 -113 0
301 303 329 85 0
301 303 -329 -85 0
301 -303 329 -85 0
301 -303 -329 85 0
-301 303 329 -85 0
-301 303 -329 85 0
-301 -303 329 85 0
-301 -303 -329 -85 0
517 519 545 85 0
517 519 -545 -85 0
517 -519 545 -85 0
517 -519 -545 85 0
-517 519 545 -85 0
-517 519 -545 85 0
-517 -519 545 85 0
-517 -519 -545 -85 0
86 87 -89 0
86 -87 89 0
-86 87 89 0
-86 -87 -89 0
302 303 305 86 0
302 303 -305 -86 0
302 -303 305 -86 0
302 -303 -305 86 0
-302 303 305 -86 0
-302 303 -305 86 0
-302 -303 305 86 0
-302 -303 -305 -86 0
518 519 521 86 0
518 519 -521 -86 0
518 -519 521 -86 0
518 -519 -521 86 0
-518 519 521 -86 0
-518 519 -521 86 0
-518 -519 521 86 0
-518 -519 -521 -86 0
88 89 -91 0
88 -89 91 0
-88 89 91 0
-88 -89 -91 0
304 305 307 88 0
304 305 -307 -88 0
304 -305 307 -88 0
304 -305 -307 88 0
-304 305 307 -88 0
-304 305 -307 88 0
-304 -305 307 88 0
-304 -305 -307 -88 0
520 521 523 88 0
520 521 -523 -88 0
520 -521 523 -88 0
520 -521 -523 88 0
-520 521 523 -88 0
-520 521 -523 88 0
-520 -521 523 88 0
-520 -521 -523 -88 0
90 91 -93 0
90 -91 93 0
-90 91 93 0
-90 -91 -93 0
306 307 309 93 0
306 307 -309 -93 0
306 -307 309 -93 0
306 -307 -309 93 0
-306 307 309 -93 0
-306 307 -309 93 0
-306 -307 309 93 0
-306 -307 -309 -93 0
522 523 525 93 0
522 523 -525 -93 0
522 -523 525 -93 0
522 -523 -525 93 0
-522 523 525 -93 0
-522 523 -525 93 0
-522 -523 525 93 0
-522 -523 -525 -93 0
92 93 -95 0
92 -93 95 0
-92 93 95 0
-92 -93 -95 0
308 309 311 93 0
308 309 -311 -93 0
308 -309 311 -93 0
308 -309 -311 93 0
-308 309 311 -93 0
-308 309 -311 93 0
-308 -309 311 93 0
-308 -309 -311 -93 0
524 525 527 93 0
524 525 -527 -93 0
524 -525 527 -93 0
524 -525 -527 93 0
-524 525 527 -93 0
-524 525 -527 93 0
-524 -525 527 93 0
-524 -525 -527 -93 0
94 95 -114 0
94 -95 114 0
-94 95 114 0
-94 -95 -114 0
310 311 -330 0
310 -311 330 0
-310 311 330 0
-310 -311 -330 0
526 527 -546 0
526 -527 546 0
-526 527 546 0
-526 -527 -546 0
96 98 -144 0
96 -98 144 0
-96 98 144 0
-96 -98 -144 0
312 314 360 98 0
312 314 -360 -98 0
312 -314 360 -98 0
312 -314 -360 98 0
-312 314 360 -98 0
-312 314 -360 98 0
-312 -314 360 98 0
-312 -314 -360 -98 0
528 530 576 98 0
528 530 -576 -98 0
528 -530 576 -98 0
528 -530 -576 98 0
-528 530 576 -98 0
-528 530 -576 98 0
-528 -530 576 98 0
-528 -530 -576 -98 0
97 98 -105 0
97 -98 105 0
-97 98 105 0
-97 -98 -105 0
313 314 321 98 0
313 314 -321 -98 0
313 -314 321 -98 0
313 -314 -321 98 0
-313 314 321 -98 0
-313 314 -321 98 0
-313 -314 321 98 0
-313 -314 -321 -98 0
529 530 537 98 0
529 530 -537 -98 0
529 -530 537 -98 0
529 -530 -537 98 0
-529 530 537 -98 0
-529 530 -537 98 0
-529 -530 537 98 0
-529 -530 -537 -98 0
99 100 -102 0
99 -100 102 0
-99 100 102 0
-99 -100 -102 0
315 316 318 -100 0
315 316 -318 100 0
315 -316 318 100 0
315 -316 -318 -100 0
-315 316 318 100 0
-315 316 -318 -100 0
-315 -316 318 -100 0
-315 -316 -318 100 0
531 532 534 -100 0
531 532 -534 100 0
531 -532 534 100 0
531 -532 -534 -100 0
-531 532 534 100 0
-531 532 -534 -100 0
-531 -532 534 -100 0
-531 -532 -534 100 0
101 102 -104 0
101 -102 104 0
-101 102 104 0
-101 -102 -104 0
317 318 -320 0
317 -318 320 0
-317 318 320 0
-317 -318 -320 0
533 534 -536 0
533 -534 536 0
-533 534 536 0
-533 -534 -536 0
103 104 -106 0
103 -104 106 0
-103 104 106 0
-103 -104 -106 0
319 320 -322 0
319 -320 322 0
-319 320 322 0
-319 -320 -322 0
535 536 -538 0
535 -536 538 0
-535 536 538 0
-535 -536 -538 0
105 106 -112 0
105 -106 112 0
-105 106 112 0
-105 -106 -112 0
321 322 -328 0
321 -322 328 0
-321 322 328 0
-321 -322 -328 0
537 538 -544 0
537 -538 544 0
-537 538 544 0
-537 -538 -544 0
107 110 -139 0
107 -110 139 0
-107 110 139 0
-107 -110 -139 0
323 326 355 107 110 0
323 326 355 -107 -110 0
323 326 -355 107 -110 0
323 326 -355 -107 110 0
323 -326 355 107 -110 0
323 -326 355 -107 110 0
323 -326 -355 107 110 0
323 -326 -355 -107 -110 0
-323 326 355 107 -110 0
-323 326 355 -107 110 0
-323 326 -355 107 110 0
-323 326 -355 -107 -110 0
-323 -326 355 107 110 0
-323 -326 355 -107 -110 0
-323 -326 -355 107 -110 0
-323 -326 -355 -107 110 0
539 542 571 107 110 0
539 542 571 -107 -110 0
539 542 -571 107 -110 0
539 542 -571 -107 110 0
539 -542 571 107 -110 0
539 -542 571 -107 110 0
539 -542 -571 107 110 0
539 -542 -571 -107 -110 0
-539 542 571 107 -110 0
-539 542 571 -107 110 0
-539 542 -571 107 110 0
-539 542 -571 -107 -110 0
-539 -542 571 107 110 0
-539 -542 571 -107 -110 0
-539 -542 -571 107 -110 0
-539 -542 -571 -107 110 0
107 108 -142 0
107 -108 142 0
-107 108 142 0
-107 -108 -142 0
323 324 358 -107 0
323 324 -358 107 0
323 -324 358 107 0
323 -324 -358 -107 0
-323 324 358 107 0
-323 324 -358 -107 0
-323 -324 358 -107 0
-323 -324 -358 107 0
539 540 574 -107 0
539 540 -574 107 0
539 -540 574 107 0
539 -540 -574 -107 0
-539 540 574 107 0
-539 540 -574 -107 0
-539 -540 574 -107 0
-539 -540 -574 107 0
108 109 -152 0
108 -109 152 0
-108 109 152 0
-108 -109 -152 0
324 325 368 -109 0
324 325 -368 109 0
324 -325 368 109 0
324 -325 -368 -109 0
-324 325 368 109 0
-324 325 -368 -109 0
-324 -325 368 -109 0
-324 -325 -368 109 0
540 541 584 -109 0
540 541 -584 109 0
540 -541 584 109 0
540 -541 -584 -109 0
-540 541 584 109 0
-540 541 -584 -109 0
-540 -541 584 -109 0
-540 -541 -584 109 0
109 111 -140 0
109 -111 140 0
-109 111 140 0
-109 -111 -140 0
325 327 356 -109 0
325 327 -356 109 0
325 -327 356 109 0
325 -327 -356 -109 0
-325 327 356 109 0
-325 327 -356 -109 0
-325 -327 356 -109 0
-325 -327 -356 109 0
541 543 572 -109 0
541 543 -572 109 0
541 -543 572 109 0
541 -543 -572 -109 0
-541 543 572 109 0
-541 543 -572 -109 0
-541 -543 572 -109 0
-541 -543 -572 109 0
110 111 -148 0
110 -111 148 0
-110 111 148 0
-110 -111 -148 0
326 327 364 110 0
326 327 -364 -110 0
326 -327 364 -110 0
326 -327 -364 110 0
-326 327 364 -110 0
-326 327 -364 110 0
-326 -327 364 110 0
-326 -327 -364 -110 0
542 543 580 110 0
542 543 -580 -110 0
542 -543 580 -110 0
542 -543 -580 110 0
-542 543 580 -110 0
-542 543 -580 110 0
-542 -543 580 110 0
-542 -543 -580 -110 0
112 117 -137 0
112 -117 137 0
-112 117 137 0
-112 -117 -137 0
328 333 353 -137 0
328 333 -353 137 0
328 -333 353 137 0
328 -333 -353 -137 0
-328 333 353 137 0
-328 333 -353 -137 0
-328 -333 353 -137 0
-328 -333 -353 137 0
544 549 569 -137 0
544 549 -569 137 0
544 -549 569 137 0
544 -549 -569 -137 0
-544 549 569 137 0
-544 549 -569 -137 0
-544 -549 569 -137 0
-544 -549 -569 137 0
113 115 -119 0
113 -115 119 0
-113 115 119 0
-113 -115 -119 0
329 331 335 115 0
329 331 -335 -115 0
329 -331 335 -115 0
329 -331 -335 115 0
-329 331 335 -115 0
-329 331 -335 115 0
-329 -331 335 115 0
-329 -331 -335 -115 0
545 547 551 115 0
545 547 -551 -115 0
545 -547 551 -115 0
545 -547 -551 115 0
-545 547 551 -115 0
-545 547 -551 115 0
-545 -547 551 115 0
-545 -547 -551 -115 0
114 115 -116 0
114 -115 116 0
-114 115 116 0
-114 -115 -116 0
330 331 332 115 0
330 331 -332 -115 0
330 -331 332 -115 0
330 -331 -332 115 0
-330 331 332 -115 0
-330 331 -332 115 0
-330 -331 332 115 0
-330 -331 -332 -115 0
546 547 548 115 0
546 547 -548 -115 0
546 -547 548 -115 0
546 -547 -548 115 0
-546 547 548 -115 0
-546 547 -548 115 0
-546 -547 548 115 0
-546 -547 -548 -115 0
116 118 -121 0
116 -118 121 0
-116 118 121 0
-116 -118 -121 0
332 334 -337 0
332 -334 337 0
-332 334 337 0
-332 -334 -337 0
548 550 -553 0
548 -550 553 0
-548 550 553 0
-548 -550 -553 0
117 118 -162 0
117 -118 162 0
-117 118 162 0
-117 -118 -162 0
333 334 -378 0
333 -334 378 0
-333 334 378 0
-333 -334 -378 0
549 550 -594 0
549 -550 594 0
-549 550 594 0
-549 -550 -594 0
120 146 -164 0
120 -146 164 0
-120 146 164 0
-120 -146 -164 0
336 362 380 -120 0
336 362 -380 120 0
336 -362 380 120 0
336 -362 -380 -120 0
-336 362 380 120 0
-336 362 -380 -120 0
-336 -362 380 -120 0
-336 -362 -380 120 0
552 578 596 -120 0
552 578 -596 120 0
552 -578 596 120 0
552 -578 -596 -120 0
-552 578 596 120 0
-552 578 -596 -120 0
-552 -578 596 -120 0
-552 -578 -596 120 0
119 120 -122 0
119 -120 122 0
-119 120 122 0
-119 -120 -122 0
335 336 338 -120 0
335 336 -338 120 0
335 -336 338 120 0
335 -336 -338 -120 0
-335 336 338 120 0
-335 336 -338 -120 0
-335 -336 338 -120 0
-335 -336 -338 120 0
551 552 554 -120 0
551 552 -554 120 0
551 -552 554 120 0
551 -552 -554 -120 0
-551 552 554 120 0
-551 552 -554 -120 0
-551 -552 554 -120 0
-551 -552 -554 120 0
121 122 -123 0
121 -122 123 0
-121 122 123 0
-121 -122 -123 0
337 338 -339 0
337 -338 339 0
-337 338 339 0
-337 -338 -339 0
553 554 -555 0
553 -554 555 0
-553 554 555 0
-553 -554 -555 0
123 124 -135 0
123 -124 135 0
-123 124 135 0
-123 -124 -135 0
339 340 -351 0
339 -340 351 0
-339 340 351 0
-339 -340 -351 0
555 556 -567 0
555 -556 567 0
-555 556 567 0
-555 -556 -567 0
124 125 -128 0
124 -125 128 0
-124 125 128 0
-124 -125 -128 0
340 341 344 -128 0
340 341 -344 128 0
340 -341 344 128 0
340 -341 -344 -128 0
-340 341 344 128 0
-340 341 -344 -128 0
-340 -341 344 -128 0
-340 -341 -344 128 0
556 557 560 -128 0
556 557 -560 128 0
556 -557 560 128 0
556 -557 -560 -128 0
-556 557 560 128 0
-556 557 -560 -128 0
-556 -557 560 -128 0
-556 -557 -560 128 0
125 126 -131 0
125 -126 131 0
-125 126 131 0
-125 -126 -131 0
341 342 -347 0
341 -342 347 0
-341 342 347 0
-341 -342 -347 0
557 558 -563 0
557 -558 563 0
-557 558 563 0
-557 -558 -563 0
126 127 -154 0
126 -127 154 0
-126 127 154 0
-126 -127 -154 0
342 343 370 127 0
342 343 -370 -127 0
342 -343 370 -127 0
342 -343 -370 127 0
-342 343 370 -127 0
-342 343 -370 127 0
-342 -343 370 127 0
-342 -343 -370 -127 0
558 559 586 127 0
558 559 -586 -127 0
558 -559 586 -127 0
558 -559 -586 127 0
-558 559 586 -127 0
-558 559 -586 127 0
-558 -559 586 127 0
-558 -559 -586 -127 0
127 129 -133 0
127 -129 133 0
-127 129 133 0
-127 -129 -133 0
343 345 349 127 0
343 345 -349 -127 0
343 -345 349 -127 0
343 -345 -349 127 0
-343 345 349 -127 0
-343 345 -349 127 0
-343 -345 349 127 0
-343 -345 -349 -127 0
559 561 565 127 0
559 561 -565 -127 0
559 -561 565 -127 0
559 -561 -565 127 0
-559 561 565 -127 0
-559 561 -565 127 0
-559 -561 565 127 0
-559 -561 -565 -127 0
128 129 -130 0
128 -129 130 0
-128 129 130 0
-128 -129 -130 0
344 345 346 -128 0
344 345 -346 128 0
344 -345 346 128 0
344 -345 -346 -128 0
-344 345 346 128 0
-344 345 -346 -128 0
-344 -345 346 -128 0
-344 -345 -346 128 0
560 561 562 -128 0
560 561 -562 128 0
560 -561 562 128 0
560 -561 -562 -128 0
-560 561 562 128 0
-560 561 -562 -128 0
-560 -561 562 -128 0
-560 -561 -562 128 0
130 132 -156 0
130 -132 156 0
-130 132 156 0
-130 -132 -156 0
346 348 372 132 0
346 348 -372 -132 0
346 -348 372 -132 0
346 -348 -372 132 0
-346 348 372 -132 0
-346 348 -372 132 0
-346 -348 372 132 0
-346 -348 -372 -132 0
562 564 588 132 0
562 564 -588 -132 0
562 -564 588 -132 0
562 -564 -588 132 0
-562 564 588 -132 0
-562 564 -588 132 0
-562 -564 588 132 0
-562 -564 -588 -132 0
131 132 -134 0
131 -132 134 0
-131 132 134 0
-131 -132 -134 0
347 348 350 132 134 0
347 348 350 -132 -134 0
347 348 -350 132 -134 0
347 348 -350 -132 134 0
347 -348 350 132 -134 0
347 -348 350 -132 134 0
347 -348 -350 132 134 0
347 -348 -350 -132 -134 0
-347 348 350 132 -134 0
-347 348 350 -132 134 0
-347 348 -350 132 134 0
-347 348 -350 -132 -134 0
-347 -348 350 132 134 0
-347 -348 350 -132 -134 0
-347 -348 -350 132 -134 0
-347 -348 -350 -132 134 0
563 564 566 132 134 0
563 564 566 -132 -134 0
563 564 -566 132 -134 0
563 564 -566 -132 134 0
563 -564 566 132 -134 0
563 -564 566 -132 134 0
563 -564 -566 132 134 0
563 -564 -566 -132 -134 0
-563 564 566 132 -134 0
-563 564 566 -132 134 0
-563 564 -566 132 134 0
-563 564 -566 -132 -134 0
-563 -564 566 132 134 0
-563 -564 566 -132 -134 0
-563 -564 -566 132 -134 0
-563 -564 -566 -132 134 0
133 134 -136 0
133 -134 136 0
-133 134 136 0
-133 -134 -136 0
349 350 352 -134 0
349 350 -352 134 0
349 -350 352 134 0
349 -350 -352 -134 0
-349 350 352 134 0
-349 350 -352 -134 0
-349 -350 352 -134 0
-349 -350 -352 134 0
565 566 568 -134 0
565 566 -568 134 0
565 -566 568 134 0
565 -566 -568 -134 0
-565 566 568 134 0
-565 566 -568 -134 0
-565 -566 568 -134 0
-565 -566 -568 134 0
135 136 -138 0
135 -136 138 0
-135 136 138 0
-135 -136 -138 0
351 352 -354 0
351 -352 354 0
-351 352 354 0
-351 -352 -354 0
567 568 -570 0
567 -568 570 0
-567 568 570 0
-567 -568 -570 0
137 138 -149 0
137 -138 149 0
-137 138 149 0
-137 -138 -149 0
353 354 365 137 149 0
353 354 365 -137 -149 0
353 354 -365 137 -149 0
353 354 -365 -137 149 0
353 -354 365 137 -149 0
353 -354 365 -137 149 0
353 -354 -365 137 149 0
353 -354 -365 -137 -149 0
-353 354 365 137 -149 0
-353 354 365 -137 149 0
-353 354 -365 137 149 0
-353 354 -365 -137 -149 0
-353 -354 365 137 149 0
-353 -354 365 -137 -149 0
-353 -354 -365 137 -149 0
-353 -354 -365 -137 149 0
569 570 581 137 149 0
569 570 581 -137 -149 0
569 570 -581 137 -149 0
569 570 -581 -137 149 0
569 -570 581 137 -149 0
569 -570 581 -137 149 0
569 -570 -581 137 149 0
569 -570 -581 -137 -149 0
-569 570 581 137 -149 0
-569 570 581 -137 149 0
-569 570 -581 137 149 0
-569 570 -581 -137 -149 0
-569 -570 581 137 149 0
-569 -570 581 -137 -149 0
-569 -570 -581 137 -149 0
-569 -570 -581 -137 149 0
139 141 -158 0
139 -141 158 0
-139 141 158 0
-139 -141 -158 0
355 357 -374 0
355 -357 374 0
-355 357 374 0
-355 -357 -374 0
571 573 -590 0
571 -573 590 0
-571 573 590 0
-571 -573 -590 0
140 141 -143 0
140 -141 143 0
-140 141 143 0
-140 -141 -143 0
356 357 359 143 0
356 357 -359 -143 0
356 -357 359 -143 0
356 -357 -359 143 0
-356 357 359 -143 0
-356 357 -359 143 0
-356 -357 359 143 0
-356 -357 -359 -143 0
572 573 575 143 0
572 573 -575 -143 0
572 -573 575 -143 0
572 -573 -575 143 0
-572 573 575 -143 0
-572 573 -575 143 0
-572 -573 575 143 0
-572 -573 -575 -143 0
142 143 -145 0
142 -143 145 0
-142 143 145 0
-142 -143 -145 0
358 359 361 143 0
358 359 -361 -143 0
358 -359 361 -143 0
358 -359 -361 143 0
-358 359 361 -143 0
-358 359 -361 143 0
-358 -359 361 143 0
-358 -359 -361 -143 0
574 575 577 143 0
574 575 -577 -143 0
574 -575 577 -143 0
574 -575 -577 143 0
-574 575 577 -143 0
-574 575 -577 143 0
-574 -575 577 143 0
-574 -575 -577 -143 0
144 145 -147 0
144 -145 147 0
-144 145 147 0
-144 -145 -147 0
360 361 -363 0
360 -361 363 0
-360 361 363 0
-360 -361 -363 0
576 577 -579 0
576 -577 579 0
-576 577 579 0
-576 -577 -579 0
146 147 -209 0
146 -147 209 0
-146 147 209 0
-146 -147 -209 0
362 363 -425 0
362 -363 425 0
-362 363 425 0
-362 -363 -425 0
578 579 -641 0
578 -579 641 0
-578 579 641 0
-578 -579 -641 0
148 150 -212 0
148 -150 212 0
-148 150 212 0
-148 -150 -212 0
364 366 -428 0
364 -366 428 0
-364 366 428 0
-364 -366 -428 0
580 582 -644 0
580 -582 644 0
-580 582 644 0
-580 -582 -644 0
149 150 -151 0
149 -150 151 0
-149 150 151 0
-149 -150 -151 0
365 366 367 149 151 0
365 366 367 -149 -151 0
365 366 -367 149 -151 0
365 366 -367 -149 151 0
365 -366 367 149 -151 0
365 -366 367 -149 151 0
365 -366 -367 149 151 0
365 -366 -367 -149 -151 0
-365 366 367 149 -151 0
-365 366 367 -149 151 0
-365 366 -367 149 151 0
-365 366 -367 -149 -151 0
-365 -366 367 149 151 0
-365 -366 367 -149 -151 0
-365 -366 -367 149 -151 0
-365 -366 -367 -149 151 0
581 582 583 149 151 0
581 582 583 -149 -151 0
581 582 -583 149 -151 0
581 582 -583 -149 151 0
581 -582 583 149 -151 0
581 -582 583 -149 151 0
581 -582 -583 149 151 0
581 -582 -583 -149 -151 0
-581 582 583 149 -151 0
-581 582 583 -149 151 0
-581 582 -583 149 151 0
-581 582 -583 -149 -151 0
-581 -582 583 149 151 0
-581 -582 583 -149 -151 0
-581 -582 -583 149 -151 0
-581 -582 -583 -149 151 0
151 153 -159 0
151 -153 159 0
-151 153 159 0
-151 -153 -159 0
367 369 375 151 159 0
367 369 375 -151 -159 0
367 369 -375 151 -159 0
367 369 -375 -151 159 0
367 -369 375 151 -159 0
367 -369 375 -151 159 0
367 -369 -375 151 159 0
367 -369 -375 -151 -159 0
-367 369 375 151 -159 0
-367 369 375 -151 159 0
-367 369 -375 151 159 0
-367 369 -375 -151 -159 0
-367 -369 375 151 159 0
-367 -369 375 -151 -159 0
-367 -369 -375 151 -159 0
-367 -369 -375 -151 159 0
583 585 591 151 159 0
583 585 591 -151 -159 0
583 585 -591 151 -159 0
583 585 -591 -151 159 0
583 -585 591 151 -159 0
583 -585 591 -151 159 0
583 -585 -591 151 159 0
583 -585 -591 -151 -159 0
-583 585 591 151 -159 0
-583 585 591 -151 159 0
-583 585 -591 151 159 0
-583 585 -591 -151 -159 0
-583 -585 591 151 159 0
-583 -585 591 -151 -159 0
-583 -585 -591 151 -159 0
-583 -585 -591 -151 159 0
152 153 -155 0
152 -153 155 0
-152 153 155 0
-152 -153 -155 0
368 369 -371 0
368 -369 371 0
-368 369 371 0
-368 -369 -371 0
584 585 -587 0
584 -585 587 0
-584 585 587 0
-584 -585 -587 0
154 155 -157 0
154 -155 157 0
-154 155 157 0
-154 -155 -157 0
370 371 -373 0
370 -371 373 0
-370 371 373 0
-370 -371 -373 0
586 587 -589 0
586 -587 589 0
-586 587 589 0
-586 -587 -589 0
156 157 -160 0
156 -157 160 0
-156 157 160 0
-156 -157 -160 0
372 373 -376 0
372 -373 376 0
-372 373 376 0
-372 -373 -376 0
588 589 -592 0
588 -589 592 0
-588 589 592 0
-588 -589 -592 0
158 159 -160 0
158 -159 160 0
-158 159 160 0
-158 -159 -160 0
374 375 376 159 0
374 375 -376 -159 0
374 -375 376 -159 0
374 -375 -376 159 0
-374 375 376 -159 0
-374 375 -376 159 0
-374 -375 376 159 0
-374 -375 -376 -159 0
590 591 592 159 0
590 591 -592 -159 0
590 -591 592 -159 0
590 -591 -592 159 0
-590 591 592 -159 0
-590 591 -592 159 0
-590 -591 592 159 0
-590 -591 -592 -159 0
161 165 -193 0
161 -165 193 0
-161 165 193 0
-161 -165 -193 0
377 381 409 165 0
377 381 -409 -165 0
377 -381 409 -165 0
377 -381 -409 165 0
-377 381 409 -165 0
-377 381 -409 165 0
-377 -381 409 165 0
-377 -381 -409 -165 0
593 597 625 165 0
593 597 -625 -165 0
593 -597 625 -165 0
593 -597 -625 165 0
-593 597 625 -165 0
-593 597 -625 165 0
-593 -597 625 165 0
-593 -597 -625 -165 0
161 163 -196 0
161 -163 196 0
-161 163 196 0
-161 -163 -196 0
377 379 412 -163 0
377 379 -412 163 0
377 -379 412 163 0
377 -379 -412 -163 0
-377 379 412 163 0
-377 379 -412 -163 0
-377 -379 412 -163 0
-377 -379 -412 163 0
593 595 628 -163 0
593 595 -628 163 0
593 -595 628 163 0
593 -595 -628 -163 0
-593 595 628 163 0
-593 595 -628 -163 0
-593 -595 628 -163 0
-593 -595 -628 163 0
162 163 -207 0
162 -163 207 0
-162 163 207 0
-162 -163 -207 0
378 379 423 -163 0
378 379 -423 163 0
378 -379 423 163 0
378 -379 -423 -163 0
-378 379 423 163 0
-378 379 -423 -163 0
-378 -379 423 -163 0
-378 -379 -423 163 0
594 595 639 -163 0
594 595 -639 163 0
594 -595 639 163 0
594 -595 -639 -163 0
-594 595 639 163 0
-594 595 -639 -163 0
-594 -595 639 -163 0
-594 -595 -639 163 0
164 166 -194 0
164 -166 194 0
-164 166 194 0
-164 -166 -194 0
380 382 -410 0
380 -382 410 0
-380 382 410 0
-380 -382 -410 0
596 598 -626 0
596 -598 626 0
-596 598 626 0
-596 -598 -626 0
165 166 -202 0
165 -166 202 0
-165 166 202 0
-165 -166 -202 0
381 382 418 165 0
381 382 -418 -165 0
381 -382 418 -165 0
381 -382 -418 165 0
-381 382 418 -165 0
-381 382 -418 165 0
-381 -382 418 165 0
-381 -382 -418 -165 0
597 598 634 165 0
597 598 -634 -165 0
597 -598 634 -165 0
597 -598 -634 165 0
-597 598 634 -165 0
-597 598 -634 165 0
-597 -598 634 165 0
-597 -598 -634 -165 0
167 170 -191 0
167 -170 191 0
-167 170 191 0
-167 -170 -191 0
383 386 407 167 0
383 386 -407 -167 0
383 -386 407 -167 0
383 -386 -407 167 0
-383 386 407 -167 0
-383 386 -407 167 0
-383 -386 407 167 0
-383 -386 -407 -167 0
599 602 623 167 0
599 602 -623 -167 0
599 -602 623 -167 0
599 -602 -623 167 0
-599 602 623 -167 0
-599 602 -623 167 0
-599 -602 623 167 0
-599 -602 -623 -167 0
167 168 -173 0
167 -168 173 0
-167 168 173 0
-167 -168 -173 0
383 384 389 167 0
383 384 -389 -167 0
383 -384 389 -167 0
383 -384 -389 167 0
-383 384 389 -167 0
-383 384 -389 167 0
-383 -384 389 167 0
-383 -384 -389 -167 0
599 600 605 167 0
599 600 -605 -167 0
599 -600 605 -167 0
599 -600 -605 167 0
-599 600 605 -167 0
-599 600 -605 167 0
-599 -600 605 167 0
-599 -600 -605 -167 0
168 169 -198 0
168 -169 198 0
-168 169 198 0
-168 -169 -198 0
384 385 414 169 0
384 385 -414 -169 0
384 -385 414 -169 0
384 -385 -414 169 0
-384 385 414 -169 0
-384 385 -414 169 0
-384 -385 414 169 0
-384 -385 -414 -169 0
600 601 630 169 0
600 601 -630 -169 0
600 -601 630 -169 0
600 -601 -630 169 0
-600 601 630 -169 0
-600 601 -630 169 0
-600 -601 630 169 0
-600 -601 -630 -169 0
169 171 -175 0
169 -171 175 0
-169 171 175 0
-169 -171 -175 0
385 387 391 169 0
385 387 -391 -169 0
385 -387 391 -169 0
385 -387 -391 169 0
-385 387 391 -169 0
-385 387 -391 169 0
-385 -387 391 169 0
-385 -387 -391 -169 0
601 603 607 169 0
601 603 -607 -169 0
601 -603 607 -169 0
601 -603 -607 169 0
-601 603 607 -169 0
-601 603 -607 169 0
-601 -603 607 169 0
-601 -603 -607 -169 0
170 171 -172 0
170 -171 172 0
-170 171 172 0
-170 -171 -172 0
386 387 -388 0
386 -387 388 0
-386 387 388 0
-386 -387 -388 0
602 603 -604 0
602 -603 604 0
-602 603 604 0
-602 -603 -604 0
172 174 -200 0
172 -174 200 0
-172 174 200 0
-172 -174 -200 0
388 390 416 174 200 0
388 390 416 -174 -200 0
388 390 -416 174 -200 0
388 390 -416 -174 200 0
388 -390 416 174 -200 0
388 -390 416 -174 200 0
388 -390 -416 174 200 0
388 -390 -416 -174 -200 0
-388 390 416 174 -200 0
-388 390 416 -174 200 0
-388 390 -416 174 200 0
-388 390 -416 -174 -200 0
-388 -390 416 174 200 0
-388 -390 416 -174 -200 0
-388 -390 -416 174 -200 0
-388 -390 -416 -174 200 0
604 606 632 174 200 0
604 606 632 -174 -200 0
604 606 -632 174 -200 0
604 606 -632 -174 200 0
604 -606 632 174 -200 0
604 -606 632 -174 200 0
604 -606 -632 174 200 0
604 -606 -632 -174 -200 0
-604 606 632 174 -200 0
-604 606 632 -174 200 0
-604 606 -632 174 200 0
-604 606 -632 -174 -200 0
-604 -606 632 174 200 0
-604 -606 632 -174 -200 0
-604 -606 -632 174 -200 0
-604 -606 -632 -174 200 0
173 174 -176 0
173 -174 176 0
-173 174 176 0
-173 -174 -176 0
389 390 392 -174 0
389 390 -392 174 0
389 -390 392 174 0
389 -390 -392 -174 0
-389 390 392 174 0
-389 390 -392 -174 0
-389 -390 392 -174 0
-389 -390 -392 174 0
605 606 608 -174 0
605 606 -608 174 0
605 -606 608 174 0
605 -606 -608 -174 0
-605 606 608 174 0
-605 606 -608 -174 0
-605 -606 608 -174 0
-605 -606 -608 174 0
175 176 -177 0
175 -176 177 0
-175 176 177 0
-175 -176 -177 0
391 392 393 177 0
391 392 -393 -177 0
391 -392 393 -177 0
391 -392 -393 177 0
-391 392 393 -177 0
-391 392 -393 177 0
-391 -392 393 177 0
-391 -392 -393 -177 0
607 608 609 177 0
607 608 -609 -177 0
607 -608 609 -177 0
607 -608 -609 177 0
-607 608 609 -177 0
-607 608 -609 177 0
-607 -608 609 177 0
-607 -608 -609 -177 0
177 178 -189 0
177 -178 189 0
-177 178 189 0
-177 -178 -189 0
393 394 405 177 0
393 394 -405 -177 0
393 -394 405 -177 0
393 -394 -405 177 0
-393 394 405 -177 0
-393 394 -405 177 0
-393 -394 405 177 0
-393 -394 -405 -177 0
609 610 621 177 0
609 610 -621 -177 0
609 -610 621 -177 0
609 -610 -621 177 0
-609 610 621 -177 0
-609 610 -621 177 0
-609 -610 621 177 0
-609 -610 -621 -177 0
178 179 -182 0
178 -179 182 0
-178 179 182 0
-178 -179 -182 0
394 395 -398 0
394 -395 398 0
-394 395 398 0
-394 -395 -398 0
610 611 -614 0
610 -611 614 0
-610 611 614 0
-610 -611 -614 0
179 180 -185 0
179 -180 185 0
-179 180 185 0
-179 -180 -185 0
395 396 -401 0
395 -396 401 0
-395 396 401 0
-395 -396 -401 0
611 612 -617 0
611 -612 617 0
-611 612 617 0
-611 -612 -617 0
180 181 -210 0
180 -181 210 0
-180 181 210 0
-180 -181 -210 0
396 397 426 210 0
396 397 -426 -210 0
396 -397 426 -210 0
396 -397 -426 210 0
-396 397 426 -210 0
-396 397 -426 210 0
-396 -397 426 210 0
-396 -397 -426 -210 0
612 613 642 210 0
612 613 -642 -210 0
612 -613 642 -210 0
612 -613 -642 210 0
-612 613 642 -210 0
-612 613 -642 210 0
-612 -613 642 210 0
-612 -613 -642 -210 0
181 183 -187 0
181 -183 187 0
-181 183 187 0
-181 -183 -187 0
397 399 403 183 0
397 399 -403 -183 0
397 -399 403 -183 0
397 -399 -403 183 0
-397 399 403 -183 0
-397 399 -403 183 0
-397 -399 403 183 0
-397 -399 -403 -183 0
613 615 619 183 0
613 615 -619 -183 0
613 -615 619 -183 0
613 -615 -619 183 0
-613 615 619 -183 0
-613 615 -619 183 0
-613 -615 619 183 0
-613 -615 -619 -183 0
182 183 -184 0
182 -183 184 0
-182 183 184 0
-182 -183 -184 0
398 399 400 183 0
398 399 -400 -183 0
398 -399 400 -183 0
398 -399 -400 183 0
-398 399 400 -183 0
-398 399 -400 183 0
-398 -399 400 183 0
-398 -399 -400 -183 0
614 615 616 183 0
614 615 -616 -183 0
614 -615 616 -183 0
614 -615 -616 183 0
-614 615 616 -183 0
-614 615 -616 183 0
-614 -615 616 183 0
-614 -615 -616 -183 0
184 186 -213 0
184 -186 213 0
-184 186 213 0
-184 -186 -213 0
400 402 429 213 0
400 402 -429 -213 0
400 -402 429 -213 0
400 -402 -429 213 0
-400 402 429 -213 0
-400 402 -429 213 0
-400 -402 429 213 0
-400 -402 -429 -213 0
616 618 645 213 0
616 618 -645 -213 0
616 -618 645 -213 0
616 -618 -645 213 0
-616 618 645 -213 0
-616 618 -645 213 0
-616 -618 645 213 0
-616 -618 -645 -213 0
185 186 -188 0
185 -186 188 0
-185 186 188 0
-185 -186 -188 0
401 402 -404 0
401 -402 404 0
-401 402 404 0
-401 -402 -404 0
617 618 -620 0
617 -618 620 0
-617 618 620 0
-617 -618 -620 0
187 188 -190 0
187 -188 190 0
-187 188 190 0
-187 -188 -190 0
403 404 -406 0
403 -404 406 0
-403 404 406 0
-403 -404 -406 0
619 620 -622 0
619 -620 622 0
-619 620 622 0
-619 -620 -622 0
189 190 -192 0
189 -190 192 0
-189 190 192 0
-189 -190 -192 0
405 406 408 192 0
405 406 -408 -192 0
405 -406 408 -192 0
405 -406 -408 192 0
-405 406 408 -192 0
-405 406 -408 192 0
-405 -406 408 192 0
-405 -406 -408 -192 0
621 622 624 192 0
621 622 -624 -192 0
621 -622 624 -192 0
621 -622 -624 192 0
-621 622 624 -192 0
-621 622 -624 192 0
-621 -622 624 192 0
-621 -622 -624 -192 0
191 192 -204 0
191 -192 204 0
-191 192 204 0
-191 -192 -204 0
407 408 420 192 0
407 408 -420 -192 0
407 -408 420 -192 0
407 -408 -420 192 0
-407 408 420 -192 0
-407 408 -420 192 0
-407 -408 420 192 0
-407 -408 -420 -192 0
623 624 636 192 0
623 624 -636 -192 0
623 -624 636 -192 0
623 -624 -636 192 0
-623 624 636 -192 0
-623 624 -636 192 0
-623 -624 636 192 0
-623 -624 -636 -192 0
193 195 -214 0
193 -195 214 0
-193 195 214 0
-193 -195 -214 0
409 411 -430 0
409 -411 430 0
-409 411 430 0
-409 -411 -430 0
625 627 -646 0
625 -627 646 0
-625 627 646 0
-625 -627 -646 0
194 195 -197 0
194 -195 197 0
-194 195 197 0
-194 -195 -197 0
410 411 -413 0
410 -411 413 0
-410 411 413 0
-410 -411 -413 0
626 627 -629 0
626 -627 629 0
-626 627 629 0
-626 -627 -629 0
196 197 -199 0
196 -197 199 0
-196 197 199 0
-196 -197 -199 0
412 413 -415 0
412 -413 415 0
-412 413 415 0
-412 -413 -415 0
628 629 -631 0
628 -629 631 0
-628 629 631 0
-628 -629 -631 0
198 199 -201 0
198 -199 201 0
-198 199 201 0
-198 -199 -201 0
414 415 -417 0
414 -415 417 0
-414 415 417 0
-414 -415 -417 0
630 631 -633 0
630 -631 633 0
-630 631 633 0
-630 -631 -633 0
200 201 -203 0
200 -201 203 0
-200 201 203 0
-200 -201 -203 0
416 417 419 200 0
416 417 -419 -200 0
416 -417 419 -200 0
416 -417 -419 200 0
-416 417 419 -200 0
-416 417 -419 200 0
-416 -417 419 200 0
-416 -417 -419 -200 0
632 633 635 200 0
632 633 -635 -200 0
632 -633 635 -200 0
632 -633 -635 200 0
-632 633 635 -200 0
-632 633 -635 200 0
-632 -633 635 200 0
-632 -633 -635 -200 0
202 203 -205 0
202 -203 205 0
-202 203 205 0
-202 -203 -205 0
418 419 421 -205 0
418 419 -421 205 0
418 -419 421 205 0
418 -419 -421 -205 0
-418 419 421 205 0
-418 419 -421 -205 0
-418 -419 421 -205 0
-418 -419 -421 205 0
634 635 637 -205 0
634 635 -637 205 0
634 -635 637 205 0
634 -635 -637 -205 0
-634 635 637 205 0
-634 635 -637 -205 0
-634 -635 637 -205 0
-634 -635 -637 205 0
204 205 -206 0
204 -205 206 0
-204 205 206 0
-204 -205 -206 0
420 421 422 -205 0
420 421 -422 205 0
420 -421 422 205 0
420 -421 -422 -205 0
-420 421 422 205 0
-420 421 -422 -205 0
-420 -421 422 -205 0
-420 -421 -422 205 0
636 637 638 -205 0
636 637 -638 205 0
636 -637 638 205 0
636 -637 -638 -205 0
-636 637 638 205 0
-636 637 -638 -205 0
-636 -637 638 -205 0
-636 -637 -638 205 0
206 208 -215 0
206 -208 215 0
-206 208 215 0
-206 -208 -215 0
422 424 431 208 0
422 424 -431 -208 0
422 -424 431 -208 0
422 -424 -431 208 0
-422 424 431 -208 0
-422 424 -431 208 0
-422 -424 431 208 0
-422 -424 -431 -208 0
638 640 647 208 0
638 640 -647 -208 0
638 -640 647 -208 0
638 -640 -647 208 0
-638 640 647 -208 0
-638 640 -647 208 0
-638 -640 647 208 0
-638 -640 -647 -208 0
207 208 -211 0
207 -208 211 0
-207 208 211 0
-207 -208 -211 0
423 424 427 208 0
423 424 -427 -208 0
423 -424 427 -208 0
423 -424 -427 208 0
-423 424 427 -208 0
-423 424 -427 208 0
-423 -424 427 208 0
-423 -424 -427 -208 0
639 640 643 208 0
639 640 -643 -208 0
639 -640 643 -208 0
639 -640 -643 208 0
-639 640 643 -208 0
-639 640 -643 208 0
-639 -640 643 208 0
-639 -640 -643 -208 0
209 210 -211 0
209 -210 211 0
-209 210 211 0
-209 -210 -211 0
425 426 427 210 0
425 426 -427 -210 0
425 -426 427 -210 0
425 -426 -427 210 0
-425 426 427 -210 0
-425 426 -427 210 0
-425 -426 427 210 0
-425 -426 -427 -210 0
641 642 643 210 0
641 642 -643 -210 0
641 -642 643 -210 0
641 -642 -643 210 0
-641 642 643 -210 0
-641 642 -643 210 0
-641 -642 643 210 0
-641 -642 -643 -210 0
212 213 -216 0
212 -213 216 0
-212 213 216 0
-212 -213 -216 0
428 429 432 213 0
428 429 -432 -213 0
428 -429 432 -213 0
428 -429 -432 213 0
-428 429 432 -213 0
-428 429 -432 213 0
-428 -429 432 213 0
-428 -429 -432 -213 0
644 645 648 213 0
644 645 -648 -213 0
644 -645 648 -213 0
644 -645 -648 213 0
-644 645 648 -213 0
-644 645 -648 213 0
-644 -645 648 213 0
-644 -645 -648 -213 0
214 215 -216 0
214 -215 216 0
-214 215 216 0
-214 -215 -216 0
430 431 -432 0
430 -431 432 0
-430 431 432 0
-430 -431 -432 0
646 647 -648 0
646 -647 648 0
-646 647 648 0
-646 -647 -648 0
