c cubic-three-edge-coloring-v1
c SAT iff the graph has a Tait three-edge-coloring
p cnf 648 2160
1 2 3 0
-2 -1 0
-3 -1 0
-3 -2 0
4 5 6 0
-5 -4 0
-6 -4 0
-6 -5 0
7 8 9 0
-8 -7 0
-9 -7 0
-9 -8 0
10 11 12 0
-11 -10 0
-12 -10 0
-12 -11 0
13 14 15 0
-14 -13 0
-15 -13 0
-15 -14 0
16 17 18 0
-17 -16 0
-18 -16 0
-18 -17 0
19 20 21 0
-20 -19 0
-21 -19 0
-21 -20 0
22 23 24 0
-23 -22 0
-24 -22 0
-24 -23 0
25 26 27 0
-26 -25 0
-27 -25 0
-27 -26 0
28 29 30 0
-29 -28 0
-30 -28 0
-30 -29 0
31 32 33 0
-32 -31 0
-33 -31 0
-33 -32 0
34 35 36 0
-35 -34 0
-36 -34 0
-36 -35 0
37 38 39 0
-38 -37 0
-39 -37 0
-39 -38 0
40 41 42 0
-41 -40 0
-42 -40 0
-42 -41 0
43 44 45 0
-44 -43 0
-45 -43 0
-45 -44 0
46 47 48 0
-47 -46 0
-48 -46 0
-48 -47 0
49 50 51 0
-50 -49 0
-51 -49 0
-51 -50 0
52 53 54 0
-53 -52 0
-54 -52 0
-54 -53 0
55 56 57 0
-56 -55 0
-57 -55 0
-57 -56 0
58 59 60 0
-59 -58 0
-60 -58 0
-60 -59 0
61 62 63 0
-62 -61 0
-63 -61 0
-63 -62 0
64 65 66 0
-65 -64 0
-66 -64 0
-66 -65 0
67 68 69 0
-68 -67 0
-69 -67 0
-69 -68 0
70 71 72 0
-71 -70 0
-72 -70 0
-72 -71 0
73 74 75 0
-74 -73 0
-75 -73 0
-75 -74 0
76 77 78 0
-77 -76 0
-78 -76 0
-78 -77 0
79 80 81 0
-80 -79 0
-81 -79 0
-81 -80 0
82 83 84 0
-83 -82 0
-84 -82 0
-84 -83 0
85 86 87 0
-86 -85 0
-87 -85 0
-87 -86 0
88 89 90 0
-89 -88 0
-90 -88 0
-90 -89 0
91 92 93 0
-92 -91 0
-93 -91 0
-93 -92 0
94 95 96 0
-95 -94 0
-96 -94 0
-96 -95 0
97 98 99 0
-98 -97 0
-99 -97 0
-99 -98 0
100 101 102 0
-101 -100 0
-102 -100 0
-102 -101 0
103 104 105 0
-104 -103 0
-105 -103 0
-105 -104 0
106 107 108 0
-107 -106 0
-108 -106 0
-108 -107 0
109 110 111 0
-110 -109 0
-111 -109 0
-111 -110 0
112 113 114 0
-113 -112 0
-114 -112 0
-114 -113 0
115 116 117 0
-116 -115 0
-117 -115 0
-117 -116 0
118 119 120 0
-119 -118 0
-120 -118 0
-120 -119 0
121 122 123 0
-122 -121 0
-123 -121 0
-123 -122 0
124 125 126 0
-125 -124 0
-126 -124 0
-126 -125 0
127 128 129 0
-128 -127 0
-129 -127 0
-129 -128 0
130 131 132 0
-131 -130 0
-132 -130 0
-132 -131 0
133 134 135 0
-134 -133 0
-135 -133 0
-135 -134 0
136 137 138 0
-137 -136 0
-138 -136 0
-138 -137 0
139 140 141 0
-140 -139 0
-141 -139 0
-141 -140 0
142 143 144 0
-143 -142 0
-144 -142 0
-144 -143 0
145 146 147 0
-146 -145 0
-147 -145 0
-147 -146 0
148 149 150 0
-149 -148 0
-150 -148 0
-150 -149 0
151 152 153 0
-152 -151 0
-153 -151 0
-153 -152 0
154 155 156 0
-155 -154 0
-156 -154 0
-156 -155 0
157 158 159 0
-158 -157 0
-159 -157 0
-159 -158 0
160 161 162 0
-161 -160 0
-162 -160 0
-162 -161 0
163 164 165 0
-164 -163 0
-165 -163 0
-165 -164 0
166 167 168 0
-167 -166 0
-168 -166 0
-168 -167 0
169 170 171 0
-170 -169 0
-171 -169 0
-171 -170 0
172 173 174 0
-173 -172 0
-174 -172 0
-174 -173 0
175 176 177 0
-176 -175 0
-177 -175 0
-177 -176 0
178 179 180 0
-179 -178 0
-180 -178 0
-180 -179 0
181 182 183 0
-182 -181 0
-183 -181 0
-183 -182 0
184 185 186 0
-185 -184 0
-186 -184 0
-186 -185 0
187 188 189 0
-188 -187 0
-189 -187 0
-189 -188 0
190 191 192 0
-191 -190 0
-192 -190 0
-192 -191 0
193 194 195 0
-194 -193 0
-195 -193 0
-195 -194 0
196 197 198 0
-197 -196 0
-198 -196 0
-198 -197 0
199 200 201 0
-200 -199 0
-201 -199 0
-201 -200 0
202 203 204 0
-203 -202 0
-204 -202 0
-204 -203 0
205 206 207 0
-206 -205 0
-207 -205 0
-207 -206 0
208 209 210 0
-209 -208 0
-210 -208 0
-210 -209 0
211 212 213 0
-212 -211 0
-213 -211 0
-213 -212 0
214 215 216 0
-215 -214 0
-216 -214 0
-216 -215 0
217 218 219 0
-218 -217 0
-219 -217 0
-219 -218 0
220 221 222 0
-221 -220 0
-222 -220 0
-222 -221 0
223 224 225 0
-224 -223 0
-225 -223 0
-225 -224 0
226 227 228 0
-227 -226 0
-228 -226 0
-228 -227 0
229 230 231 0
-230 -229 0
-231 -229 0
-231 -230 0
232 233 234 0
-233 -232 0
-234 -232 0
-234 -233 0
235 236 237 0
-236 -235 0
-237 -235 0
-237 -236 0
238 239 240 0
-239 -238 0
-240 -238 0
-240 -239 0
241 242 243 0
-242 -241 0
-243 -241 0
-243 -242 0
244 245 246 0
-245 -244 0
-246 -244 0
-246 -245 0
247 248 249 0
-248 -247 0
-249 -247 0
-249 -248 0
250 251 252 0
-251 -250 0
-252 -250 0
-252 -251 0
253 254 255 0
-254 -253 0
-255 -253 0
-255 -254 0
256 257 258 0
-257 -256 0
-258 -256 0
-258 -257 0
259 260 261 0
-260 -259 0
-261 -259 0
-261 -260 0
262 263 264 0
-263 -262 0
-264 -262 0
-264 -263 0
265 266 267 0
-266 -265 0
-267 -265 0
-267 -266 0
268 269 270 0
-269 -268 0
-270 -268 0
-270 -269 0
271 272 273 0
-272 -271 0
-273 -271 0
-273 -272 0
274 275 276 0
-275 -274 0
-276 -274 0
-276 -275 0
277 278 279 0
-278 -277 0
-279 -277 0
-279 -278 0
280 281 282 0
-281 -280 0
-282 -280 0
-282 -281 0
283 284 285 0
-284 -283 0
-285 -283 0
-285 -284 0
286 287 288 0
-287 -286 0
-288 -286 0
-288 -287 0
289 290 291 0
-290 -289 0
-291 -289 0
-291 -290 0
292 293 294 0
-293 -292 0
-294 -292 0
-294 -293 0
295 296 297 0
-296 -295 0
-297 -295 0
-297 -296 0
298 299 300 0
-299 -298 0
-300 -298 0
-300 -299 0
301 302 303 0
-302 -301 0
-303 -301 0
-303 -302 0
304 305 306 0
-305 -304 0
-306 -304 0
-306 -305 0
307 308 309 0
-308 -307 0
-309 -307 0
-309 -308 0
310 311 312 0
-311 -310 0
-312 -310 0
-312 -311 0
313 314 315 0
-314 -313 0
-315 -313 0
-315 -314 0
316 317 318 0
-317 -316 0
-318 -316 0
-318 -317 0
319 320 321 0
-320 -319 0
-321 -319 0
-321 -320 0
322 323 324 0
-323 -322 0
-324 -322 0
-324 -323 0
325 326 327 0
-326 -325 0
-327 -325 0
-327 -326 0
328 329 330 0
-329 -328 0
-330 -328 0
-330 -329 0
331 332 333 0
-332 -331 0
-333 -331 0
-333 -332 0
334 335 336 0
-335 -334 0
-336 -334 0
-336 -335 0
337 338 339 0
-338 -337 0
-339 -337 0
-339 -338 0
340 341 342 0
-341 -340 0
-342 -340 0
-342 -341 0
343 344 345 0
-344 -343 0
-345 -343 0
-345 -344 0
346 347 348 0
-347 -346 0
-348 -346 0
-348 -347 0
349 350 351 0
-350 -349 0
-351 -349 0
-351 -350 0
352 353 354 0
-353 -352 0
-354 -352 0
-354 -353 0
355 356 357 0
-356 -355 0
-357 -355 0
-357 -356 0
358 359 360 0
-359 -358 0
-360 -358 0
-360 -359 0
361 362 363 0
-362 -361 0
-363 -361 0
-363 -362 0
364 365 366 0
-365 -364 0
-366 -364 0
-366 -365 0
367 368 369 0
-368 -367 0
-369 -367 0
-369 -368 0
370 371 372 0
-371 -370 0
-372 -370 0
-372 -371 0
373 374 375 0
-374 -373 0
-375 -373 0
-375 -374 0
376 377 378 0
-377 -376 0
-378 -376 0
-378 -377 0
379 380 381 0
-380 -379 0
-381 -379 0
-381 -380 0
382 383 384 0
-383 -382 0
-384 -382 0
-384 -383 0
385 386 387 0
-386 -385 0
-387 -385 0
-387 -386 0
388 389 390 0
-389 -388 0
-390 -388 0
-390 -389 0
391 392 393 0
-392 -391 0
-393 -391 0
-393 -392 0
394 395 396 0
-395 -394 0
-396 -394 0
-396 -395 0
397 398 399 0
-398 -397 0
-399 -397 0
-399 -398 0
400 401 402 0
-401 -400 0
-402 -400 0
-402 -401 0
403 404 405 0
-404 -403 0
-405 -403 0
-405 -404 0
406 407 408 0
-407 -406 0
-408 -406 0
-408 -407 0
409 410 411 0
-410 -409 0
-411 -409 0
-411 -410 0
412 413 414 0
-413 -412 0
-414 -412 0
-414 -413 0
415 416 417 0
-416 -415 0
-417 -415 0
-417 -416 0
418 419 420 0
-419 -418 0
-420 -418 0
-420 -419 0
421 422 423 0
-422 -421 0
-423 -421 0
-423 -422 0
424 425 426 0
-425 -424 0
-426 -424 0
-426 -425 0
427 428 429 0
-428 -427 0
-429 -427 0
-429 -428 0
430 431 432 0
-431 -430 0
-432 -430 0
-432 -431 0
433 434 435 0
-434 -433 0
-435 -433 0
-435 -434 0
436 437 438 0
-437 -436 0
-438 -436 0
-438 -437 0
439 440 441 0
-440 -439 0
-441 -439 0
-441 -440 0
442 443 444 0
-443 -442 0
-444 -442 0
-444 -443 0
445 446 447 0
-446 -445 0
-447 -445 0
-447 -446 0
448 449 450 0
-449 -448 0
-450 -448 0
-450 -449 0
451 452 453 0
-452 -451 0
-453 -451 0
-453 -452 0
454 455 456 0
-455 -454 0
-456 -454 0
-456 -455 0
457 458 459 0
-458 -457 0
-459 -457 0
-459 -458 0
460 461 462 0
-461 -460 0
-462 -460 0
-462 -461 0
463 464 465 0
-464 -463 0
-465 -463 0
-465 -464 0
466 467 468 0
-467 -466 0
-468 -466 0
-468 -467 0
469 470 471 0
-470 -469 0
-471 -469 0
-471 -470 0
472 473 474 0
-473 -472 0
-474 -472 0
-474 -473 0
475 476 477 0
-476 -475 0
-477 -475 0
-477 -476 0
478 479 480 0
-479 -478 0
-480 -478 0
-480 -479 0
481 482 483 0
-482 -481 0
-483 -481 0
-483 -482 0
484 485 486 0
-485 -484 0
-486 -484 0
-486 -485 0
487 488 489 0
-488 -487 0
-489 -487 0
-489 -488 0
490 491 492 0
-491 -490 0
-492 -490 0
-492 -491 0
493 494 495 0
-494 -493 0
-495 -493 0
-495 -494 0
496 497 498 0
-497 -496 0
-498 -496 0
-498 -497 0
499 500 501 0
-500 -499 0
-501 -499 0
-501 -500 0
502 503 504 0
-503 -502 0
-504 -502 0
-504 -503 0
505 506 507 0
-506 -505 0
-507 -505 0
-507 -506 0
508 509 510 0
-509 -508 0
-510 -508 0
-510 -509 0
511 512 513 0
-512 -511 0
-513 -511 0
-513 -512 0
514 515 516 0
-515 -514 0
-516 -514 0
-516 -515 0
517 518 519 0
-518 -517 0
-519 -517 0
-519 -518 0
520 521 522 0
-521 -520 0
-522 -520 0
-522 -521 0
523 524 525 0
-524 -523 0
-525 -523 0
-525 -524 0
526 527 528 0
-527 -526 0
-528 -526 0
-528 -527 0
529 530 531 0
-530 -529 0
-531 -529 0
-531 -530 0
532 533 534 0
-533 -532 0
-534 -532 0
-534 -533 0
535 536 537 0
-536 -535 0
-537 -535 0
-537 -536 0
538 539 540 0
-539 -538 0
-540 -538 0
-540 -539 0
541 542 543 0
-542 -541 0
-543 -541 0
-543 -542 0
544 545 546 0
-545 -544 0
-546 -544 0
-546 -545 0
547 548 549 0
-548 -547 0
-549 -547 0
-549 -548 0
550 551 552 0
-551 -550 0
-552 -550 0
-552 -551 0
553 554 555 0
-554 -553 0
-555 -553 0
-555 -554 0
556 557 558 0
-557 -556 0
-558 -556 0
-558 -557 0
559 560 561 0
-560 -559 0
-561 -559 0
-561 -560 0
562 563 564 0
-563 -562 0
-564 -562 0
-564 -563 0
565 566 567 0
-566 -565 0
-567 -565 0
-567 -566 0
568 569 570 0
-569 -568 0
-570 -568 0
-570 -569 0
571 572 573 0
-572 -571 0
-573 -571 0
-573 -572 0
574 575 576 0
-575 -574 0
-576 -574 0
-576 -575 0
577 578 579 0
-578 -577 0
-579 -577 0
-579 -578 0
580 581 582 0
-581 -580 0
-582 -580 0
-582 -581 0
583 584 585 0
-584 -583 0
-585 -583 0
-585 -584 0
586 587 588 0
-587 -586 0
-588 -586 0
-588 -587 0
589 590 591 0
-590 -589 0
-591 -589 0
-591 -590 0
592 593 594 0
-593 -592 0
-594 -592 0
-594 -593 0
595 596 597 0
-596 -595 0
-597 -595 0
-597 -596 0
598 599 600 0
-599 -598 0
-600 -598 0
-600 -599 0
601 602 603 0
-602 -601 0
-603 -601 0
-603 -602 0
604 605 606 0
-605 -604 0
-606 -604 0
-606 -605 0
607 608 609 0
-608 -607 0
-609 -607 0
-609 -608 0
610 611 612 0
-611 -610 0
-612 -610 0
-612 -611 0
613 614 615 0
-614 -613 0
-615 -613 0
-615 -614 0
616 617 618 0
-617 -616 0
-618 -616 0
-618 -617 0
619 620 621 0
-620 -619 0
-621 -619 0
-621 -620 0
622 623 624 0
-623 -622 0
-624 -622 0
-624 -623 0
625 626 627 0
-626 -625 0
-627 -625 0
-627 -626 0
628 629 630 0
-629 -628 0
-630 -628 0
-630 -629 0
631 632 633 0
-632 -631 0
-633 -631 0
-633 -632 0
634 635 636 0
-635 -634 0
-636 -634 0
-636 -635 0
637 638 639 0
-638 -637 0
-639 -637 0
-639 -638 0
640 641 642 0
-641 -640 0
-642 -640 0
-642 -641 0
643 644 645 0
-644 -643 0
-645 -643 0
-645 -644 0
646 647 648 0
-647 -646 0
-648 -646 0
-648 -647 0
-10 -1 0
-94 -1 0
-94 -10 0
-11 -2 0
-95 -2 0
-95 -11 0
-12 -3 0
-96 -3 0
-96 -12 0
-4 -1 0
-103 -1 0
-103 -4 0
-5 -2 0
-104 -2 0
-104 -5 0
-6 -3 0
-105 -3 0
-105 -6 0
-7 -4 0
-130 -4 0
-130 -7 0
-8 -5 0
-131 -5 0
-131 -8 0
-9 -6 0
-132 -6 0
-132 -9 0
-13 -7 0
-97 -7 0
-97 -13 0
-14 -8 0
-98 -8 0
-98 -14 0
-15 -9 0
-99 -9 0
-99 -15 0
-13 -10 0
-115 -10 0
-115 -13 0
-14 -11 0
-116 -11 0
-116 -14 0
-15 -12 0
-117 -12 0
-117 -15 0
-25 -16 0
-88 -16 0
-88 -25 0
-26 -17 0
-89 -17 0
-89 -26 0
-27 -18 0
-90 -18 0
-90 -27 0
-19 -16 0
-34 -16 0
-34 -19 0
-20 -17 0
-35 -17 0
-35 -20 0
-21 -18 0
-36 -18 0
-36 -21 0
-22 -19 0
-109 -19 0
-109 -22 0
-23 -20 0
-110 -20 0
-110 -23 0
-24 -21 0
-111 -21 0
-111 -24 0
-28 -22 0
-40 -22 0
-40 -28 0
-29 -23 0
-41 -23 0
-41 -29 0
-30 -24 0
-42 -24 0
-42 -30 0
-28 -25 0
-31 -25 0
-31 -28 0
-29 -26 0
-32 -26 0
-32 -29 0
-30 -27 0
-33 -27 0
-33 -30 0
-37 -31 0
-211 -31 0
-211 -37 0
-38 -32 0
-212 -32 0
-212 -38 0
-39 -33 0
-213 -33 0
-213 -39 0
-37 -34 0
-43 -34 0
-43 -37 0
-38 -35 0
-44 -35 0
-44 -38 0
-39 -36 0
-45 -36 0
-45 -39 0
-43 -40 0
-46 -40 0
-46 -43 0
-44 -41 0
-47 -41 0
-47 -44 0
-45 -42 0
-48 -42 0
-48 -45 0
-49 -46 0
-82 -46 0
-82 -49 0
-50 -47 0
-83 -47 0
-83 -50 0
-51 -48 0
-84 -48 0
-84 -51 0
-52 -49 0
-61 -49 0
-61 -52 0
-53 -50 0
-62 -50 0
-62 -53 0
-54 -51 0
-63 -51 0
-63 -54 0
-55 -52 0
-70 -52 0
-70 -55 0
-56 -53 0
-71 -53 0
-71 -56 0
-57 -54 0
-72 -54 0
-72 -57 0
-58 -55 0
-136 -55 0
-136 -58 0
-59 -56 0
-137 -56 0
-137 -59 0
-60 -57 0
-138 -57 0
-138 -60 0
-64 -58 0
-76 -58 0
-76 -64 0
-65 -59 0
-77 -59 0
-77 -65 0
-66 -60 0
-78 -60 0
-78 -66 0
-64 -61 0
-67 -61 0
-67 -64 0
-65 -62 0
-68 -62 0
-68 -65 0
-66 -63 0
-69 -63 0
-69 -66 0
-73 -67 0
-142 -67 0
-142 -73 0
-74 -68 0
-143 -68 0
-143 -74 0
-75 -69 0
-144 -69 0
-144 -75 0
-73 -70 0
-79 -70 0
-79 -73 0
-74 -71 0
-80 -71 0
-80 -74 0
-75 -72 0
-81 -72 0
-81 -75 0
-79 -76 0
-85 -76 0
-85 -79 0
-80 -77 0
-86 -77 0
-86 -80 0
-81 -78 0
-87 -78 0
-87 -81 0
-85 -82 0
-91 -82 0
-91 -85 0
-86 -83 0
-92 -83 0
-92 -86 0
-87 -84 0
-93 -84 0
-93 -87 0
-91 -88 0
-121 -88 0
-121 -91 0
-92 -89 0
-122 -89 0
-122 -92 0
-93 -90 0
-123 -90 0
-123 -93 0
-100 -94 0
-148 -94 0
-148 -100 0
-101 -95 0
-149 -95 0
-149 -101 0
-102 -96 0
-150 -96 0
-150 -102 0
-100 -97 0
-106 -97 0
-106 -100 0
-101 -98 0
-107 -98 0
-107 -101 0
-102 -99 0
-108 -99 0
-108 -102 0
-106 -103 0
-295 -103 0
-295 -106 0
-107 -104 0
-296 -104 0
-296 -107 0
-108 -105 0
-297 -105 0
-297 -108 0
-112 -109 0
-289 -109 0
-289 -112 0
-113 -110 0
-290 -110 0
-290 -113 0
-114 -111 0
-291 -111 0
-291 -114 0
-118 -112 0
-301 -112 0
-301 -118 0
-119 -113 0
-302 -113 0
-302 -119 0
-120 -114 0
-303 -114 0
-303 -120 0
-118 -115 0
-124 -115 0
-124 -118 0
-119 -116 0
-125 -116 0
-125 -119 0
-120 -117 0
-126 -117 0
-126 -120 0
-124 -121 0
-127 -121 0
-127 -124 0
-125 -122 0
-128 -122 0
-128 -125 0
-126 -123 0
-129 -123 0
-129 -126 0
-133 -127 0
-151 -127 0
-151 -133 0
-134 -128 0
-152 -128 0
-152 -134 0
-135 -129 0
-153 -129 0
-153 -135 0
-133 -130 0
-139 -130 0
-139 -133 0
-134 -131 0
-140 -131 0
-140 -134 0
-135 -132 0
-141 -132 0
-141 -135 0
-139 -136 0
-145 -136 0
-145 -139 0
-140 -137 0
-146 -137 0
-146 -140 0
-141 -138 0
-147 -138 0
-147 -141 0
-145 -142 0
-154 -142 0
-154 -145 0
-146 -143 0
-155 -143 0
-155 -146 0
-147 -144 0
-156 -144 0
-156 -147 0
-151 -148 0
-154 -148 0
-154 -151 0
-152 -149 0
-155 -149 0
-155 -152 0
-153 -150 0
-156 -150 0
-156 -153 0
-166 -157 0
-253 -157 0
-253 -166 0
-167 -158 0
-254 -158 0
-254 -167 0
-168 -159 0
-255 -159 0
-255 -168 0
-160 -157 0
-262 -157 0
-262 -160 0
-161 -158 0
-263 -158 0
-263 -161 0
-162 -159 0
-264 -159 0
-264 -162 0
-163 -160 0
-298 -160 0
-298 -163 0
-164 -161 0
-299 -161 0
-299 -164 0
-165 -162 0
-300 -162 0
-300 -165 0
-169 -163 0
-256 -163 0
-256 -169 0
-170 -164 0
-257 -164 0
-257 -170 0
-171 -165 0
-258 -165 0
-258 -171 0
-169 -166 0
-280 -166 0
-280 -169 0
-170 -167 0
-281 -167 0
-281 -170 0
-171 -168 0
-282 -168 0
-282 -171 0
-181 -172 0
-247 -172 0
-247 -181 0
-182 -173 0
-248 -173 0
-248 -182 0
-183 -174 0
-249 -174 0
-249 -183 0
-175 -172 0
-190 -172 0
-190 -175 0
-176 -173 0
-191 -173 0
-191 -176 0
-177 -174 0
-192 -174 0
-192 -177 0
-178 -175 0
-268 -175 0
-268 -178 0
-179 -176 0
-269 -176 0
-269 -179 0
-180 -177 0
-270 -177 0
-270 -180 0
-184 -178 0
-196 -178 0
-196 -184 0
-185 -179 0
-197 -179 0
-197 -185 0
-186 -180 0
-198 -180 0
-198 -186 0
-184 -181 0
-187 -181 0
-187 -184 0
-185 -182 0
-188 -182 0
-188 -185 0
-186 -183 0
-189 -183 0
-189 -186 0
-193 -187 0
-274 -187 0
-274 -193 0
-194 -188 0
-275 -188 0
-275 -194 0
-195 -189 0
-276 -189 0
-276 -195 0
-193 -190 0
-199 -190 0
-199 -193 0
-194 -191 0
-200 -191 0
-200 -194 0
-195 -192 0
-201 -192 0
-201 -195 0
-199 -196 0
-202 -196 0
-202 -199 0
-200 -197 0
-203 -197 0
-203 -200 0
-201 -198 0
-204 -198 0
-204 -201 0
-205 -202 0
-241 -202 0
-241 -205 0
-206 -203 0
-242 -203 0
-242 -206 0
-207 -204 0
-243 -204 0
-243 -207 0
-208 -205 0
-220 -205 0
-220 -208 0
-209 -206 0
-221 -206 0
-221 -209 0
-210 -207 0
-222 -207 0
-222 -210 0
-214 -208 0
-229 -208 0
-229 -214 0
-215 -209 0
-230 -209 0
-230 -215 0
-216 -210 0
-231 -210 0
-231 -216 0
-214 -211 0
-217 -211 0
-217 -214 0
-215 -212 0
-218 -212 0
-218 -215 0
-216 -213 0
-219 -213 0
-219 -216 0
-223 -217 0
-235 -217 0
-235 -223 0
-224 -218 0
-236 -218 0
-236 -224 0
-225 -219 0
-237 -219 0
-237 -225 0
-223 -220 0
-226 -220 0
-226 -223 0
-224 -221 0
-227 -221 0
-227 -224 0
-225 -222 0
-228 -222 0
-228 -225 0
-232 -226 0
-307 -226 0
-307 -232 0
-233 -227 0
-308 -227 0
-308 -233 0
-234 -228 0
-309 -228 0
-309 -234 0
-232 -229 0
-238 -229 0
-238 -232 0
-233 -230 0
-239 -230 0
-239 -233 0
-234 -231 0
-240 -231 0
-240 -234 0
-238 -235 0
-244 -235 0
-244 -238 0
-239 -236 0
-245 -236 0
-245 -239 0
-240 -237 0
-246 -237 0
-246 -240 0
-244 -241 0
-250 -241 0
-250 -244 0
-245 -242 0
-251 -242 0
-251 -245 0
-246 -243 0
-252 -243 0
-252 -246 0
-250 -247 0
-286 -247 0
-286 -250 0
-251 -248 0
-287 -248 0
-287 -251 0
-252 -249 0
-288 -249 0
-288 -252 0
-259 -253 0
-337 -253 0
-337 -259 0
-260 -254 0
-338 -254 0
-338 -260 0
-261 -255 0
-339 -255 0
-339 -261 0
-259 -256 0
-265 -256 0
-265 -259 0
-260 -257 0
-266 -257 0
-266 -260 0
-261 -258 0
-267 -258 0
-267 -261 0
-265 -262 0
-271 -262 0
-271 -265 0
-266 -263 0
-272 -263 0
-272 -266 0
-267 -264 0
-273 -264 0
-273 -267 0
-271 -268 0
-277 -268 0
-277 -271 0
-272 -269 0
-278 -269 0
-278 -272 0
-273 -270 0
-279 -270 0
-279 -273 0
-277 -274 0
-283 -274 0
-283 -277 0
-278 -275 0
-284 -275 0
-284 -278 0
-279 -276 0
-285 -276 0
-285 -279 0
-283 -280 0
-340 -280 0
-340 -283 0
-284 -281 0
-341 -281 0
-341 -284 0
-285 -282 0
-342 -282 0
-342 -285 0
-292 -286 0
-430 -286 0
-430 -292 0
-293 -287 0
-431 -287 0
-431 -293 0
-294 -288 0
-432 -288 0
-432 -294 0
-292 -289 0
-313 -289 0
-313 -292 0
-293 -290 0
-314 -290 0
-314 -293 0
-294 -291 0
-315 -291 0
-315 -294 0
-298 -295 0
-304 -295 0
-304 -298 0
-299 -296 0
-305 -296 0
-305 -299 0
-300 -297 0
-306 -297 0
-306 -300 0
-304 -301 0
-310 -301 0
-310 -304 0
-305 -302 0
-311 -302 0
-311 -305 0
-306 -303 0
-312 -303 0
-312 -306 0
-310 -307 0
-316 -307 0
-316 -310 0
-311 -308 0
-317 -308 0
-317 -311 0
-312 -309 0
-318 -309 0
-318 -312 0
-316 -313 0
-334 -313 0
-334 -316 0
-317 -314 0
-335 -314 0
-335 -317 0
-318 -315 0
-336 -315 0
-336 -318 0
-328 -319 0
-415 -319 0
-415 -328 0
-329 -320 0
-416 -320 0
-416 -329 0
-330 -321 0
-417 -321 0
-417 -330 0
-322 -319 0
-424 -319 0
-424 -322 0
-323 -320 0
-425 -320 0
-425 -323 0
-324 -321 0
-426 -321 0
-426 -324 0
-325 -322 0
-454 -322 0
-454 -325 0
-326 -323 0
-455 -323 0
-455 -326 0
-327 -324 0
-456 -324 0
-456 -327 0
-331 -325 0
-418 -325 0
-418 -331 0
-332 -326 0
-419 -326 0
-419 -332 0
-333 -327 0
-420 -327 0
-420 -333 0
-331 -328 0
-442 -328 0
-442 -331 0
-332 -329 0
-443 -329 0
-443 -332 0
-333 -330 0
-444 -330 0
-444 -333 0
-349 -334 0
-409 -334 0
-409 -349 0
-350 -335 0
-410 -335 0
-410 -350 0
-351 -336 0
-411 -336 0
-411 -351 0
-343 -337 0
-355 -337 0
-355 -343 0
-344 -338 0
-356 -338 0
-356 -344 0
-345 -339 0
-357 -339 0
-357 -345 0
-343 -340 0
-346 -340 0
-346 -343 0
-344 -341 0
-347 -341 0
-347 -344 0
-345 -342 0
-348 -342 0
-348 -345 0
-352 -346 0
-361 -346 0
-361 -352 0
-353 -347 0
-362 -347 0
-362 -353 0
-354 -348 0
-363 -348 0
-363 -354 0
-352 -349 0
-484 -349 0
-484 -352 0
-353 -350 0
-485 -350 0
-485 -353 0
-354 -351 0
-486 -351 0
-486 -354 0
-436 -358 0
-490 -358 0
-490 -436 0
-437 -359 0
-491 -359 0
-491 -437 0
-438 -360 0
-492 -360 0
-492 -438 0
-358 -355 0
-364 -355 0
-364 -358 0
-359 -356 0
-365 -356 0
-365 -359 0
-360 -357 0
-366 -357 0
-366 -360 0
-364 -361 0
-367 -361 0
-367 -364 0
-365 -362 0
-368 -362 0
-368 -365 0
-366 -363 0
-369 -363 0
-369 -366 0
-370 -367 0
-403 -367 0
-403 -370 0
-371 -368 0
-404 -368 0
-404 -371 0
-372 -369 0
-405 -369 0
-405 -372 0
-373 -370 0
-382 -370 0
-382 -373 0
-374 -371 0
-383 -371 0
-383 -374 0
-375 -372 0
-384 -372 0
-384 -375 0
-376 -373 0
-391 -373 0
-391 -376 0
-377 -374 0
-392 -374 0
-392 -377 0
-378 -375 0
-393 -375 0
-393 -378 0
-379 -376 0
-460 -376 0
-460 -379 0
-380 -377 0
-461 -377 0
-461 -380 0
-381 -378 0
-462 -378 0
-462 -381 0
-385 -379 0
-397 -379 0
-397 -385 0
-386 -380 0
-398 -380 0
-398 -386 0
-387 -381 0
-399 -381 0
-399 -387 0
-385 -382 0
-388 -382 0
-388 -385 0
-386 -383 0
-389 -383 0
-389 -386 0
-387 -384 0
-390 -384 0
-390 -387 0
-394 -388 0
-466 -388 0
-466 -394 0
-395 -389 0
-467 -389 0
-467 -395 0
-396 -390 0
-468 -390 0
-468 -396 0
-394 -391 0
-400 -391 0
-400 -394 0
-395 -392 0
-401 -392 0
-401 -395 0
-396 -393 0
-402 -393 0
-402 -396 0
-400 -397 0
-406 -397 0
-406 -400 0
-401 -398 0
-407 -398 0
-407 -401 0
-402 -399 0
-408 -399 0
-408 -402 0
-406 -403 0
-412 -403 0
-412 -406 0
-407 -404 0
-413 -404 0
-413 -407 0
-408 -405 0
-414 -405 0
-414 -408 0
-412 -409 0
-445 -409 0
-445 -412 0
-413 -410 0
-446 -410 0
-446 -413 0
-414 -411 0
-447 -411 0
-447 -414 0
-421 -415 0
-472 -415 0
-472 -421 0
-422 -416 0
-473 -416 0
-473 -422 0
-423 -417 0
-474 -417 0
-474 -423 0
-421 -418 0
-427 -418 0
-427 -421 0
-422 -419 0
-428 -419 0
-428 -422 0
-423 -420 0
-429 -420 0
-429 -423 0
-427 -424 0
-433 -424 0
-433 -427 0
-428 -425 0
-434 -425 0
-434 -428 0
-429 -426 0
-435 -426 0
-435 -429 0
-433 -430 0
-439 -430 0
-439 -433 0
-434 -431 0
-440 -431 0
-440 -434 0
-435 -432 0
-441 -432 0
-441 -435 0
-439 -436 0
-625 -436 0
-625 -439 0
-440 -437 0
-626 -437 0
-626 -440 0
-441 -438 0
-627 -438 0
-627 -441 0
-448 -442 0
-634 -442 0
-634 -448 0
-449 -443 0
-635 -443 0
-635 -449 0
-450 -444 0
-636 -444 0
-636 -450 0
-448 -445 0
-451 -445 0
-451 -448 0
-449 -446 0
-452 -446 0
-452 -449 0
-450 -447 0
-453 -447 0
-453 -450 0
-457 -451 0
-475 -451 0
-475 -457 0
-458 -452 0
-476 -452 0
-476 -458 0
-459 -453 0
-477 -453 0
-477 -459 0
-457 -454 0
-463 -454 0
-463 -457 0
-458 -455 0
-464 -455 0
-464 -458 0
-459 -456 0
-465 -456 0
-465 -459 0
-463 -460 0
-469 -460 0
-469 -463 0
-464 -461 0
-470 -461 0
-470 -464 0
-465 -462 0
-471 -462 0
-471 -465 0
-469 -466 0
-478 -466 0
-478 -469 0
-470 -467 0
-479 -467 0
-479 -470 0
-471 -468 0
-480 -468 0
-480 -471 0
-475 -472 0
-478 -472 0
-478 -475 0
-476 -473 0
-479 -473 0
-479 -476 0
-477 -474 0
-480 -474 0
-480 -477 0
-493 -481 0
-577 -481 0
-577 -493 0
-494 -482 0
-578 -482 0
-578 -494 0
-495 -483 0
-579 -483 0
-579 -495 0
-487 -481 0
-586 -481 0
-586 -487 0
-488 -482 0
-587 -482 0
-587 -488 0
-489 -483 0
-588 -483 0
-588 -489 0
-487 -484 0
-619 -484 0
-619 -487 0
-488 -485 0
-620 -485 0
-620 -488 0
-489 -486 0
-621 -486 0
-621 -489 0
-496 -490 0
-580 -490 0
-580 -496 0
-497 -491 0
-581 -491 0
-581 -497 0
-498 -492 0
-582 -492 0
-582 -498 0
-496 -493 0
-604 -493 0
-604 -496 0
-497 -494 0
-605 -494 0
-605 -497 0
-498 -495 0
-606 -495 0
-606 -498 0
-508 -499 0
-571 -499 0
-571 -508 0
-509 -500 0
-572 -500 0
-572 -509 0
-510 -501 0
-573 -501 0
-573 -510 0
-502 -499 0
-517 -499 0
-517 -502 0
-503 -500 0
-518 -500 0
-518 -503 0
-504 -501 0
-519 -501 0
-519 -504 0
-505 -502 0
-592 -502 0
-592 -505 0
-506 -503 0
-593 -503 0
-593 -506 0
-507 -504 0
-594 -504 0
-594 -507 0
-511 -505 0
-523 -505 0
-523 -511 0
-512 -506 0
-524 -506 0
-524 -512 0
-513 -507 0
-525 -507 0
-525 -513 0
-511 -508 0
-514 -508 0
-514 -511 0
-512 -509 0
-515 -509 0
-515 -512 0
-513 -510 0
-516 -510 0
-516 -513 0
-520 -514 0
-598 -514 0
-598 -520 0
-521 -515 0
-599 -515 0
-599 -521 0
-522 -516 0
-600 -516 0
-600 -522 0
-520 -517 0
-526 -517 0
-526 -520 0
-521 -518 0
-527 -518 0
-527 -521 0
-522 -519 0
-528 -519 0
-528 -522 0
-526 -523 0
-529 -523 0
-529 -526 0
-527 -524 0
-530 -524 0
-530 -527 0
-528 -525 0
-531 -525 0
-531 -528 0
-532 -529 0
-565 -529 0
-565 -532 0
-533 -530 0
-566 -530 0
-566 -533 0
-534 -531 0
-567 -531 0
-567 -534 0
-535 -532 0
-544 -532 0
-544 -535 0
-536 -533 0
-545 -533 0
-545 -536 0
-537 -534 0
-546 -534 0
-546 -537 0
-538 -535 0
-553 -535 0
-553 -538 0
-539 -536 0
-554 -536 0
-554 -539 0
-540 -537 0
-555 -537 0
-555 -540 0
-541 -538 0
-628 -538 0
-628 -541 0
-542 -539 0
-629 -539 0
-629 -542 0
-543 -540 0
-630 -540 0
-630 -543 0
-547 -541 0
-559 -541 0
-559 -547 0
-548 -542 0
-560 -542 0
-560 -548 0
-549 -543 0
-561 -543 0
-561 -549 0
-547 -544 0
-550 -544 0
-550 -547 0
-548 -545 0
-551 -545 0
-551 -548 0
-549 -546 0
-552 -546 0
-552 -549 0
-556 -550 0
-637 -550 0
-637 -556 0
-557 -551 0
-638 -551 0
-638 -557 0
-558 -552 0
-639 -552 0
-639 -558 0
-556 -553 0
-562 -553 0
-562 -556 0
-557 -554 0
-563 -554 0
-563 -557 0
-558 -555 0
-564 -555 0
-564 -558 0
-562 -559 0
-568 -559 0
-568 -562 0
-563 -560 0
-569 -560 0
-569 -563 0
-564 -561 0
-570 -561 0
-570 -564 0
-568 -565 0
-574 -565 0
-574 -568 0
-569 -566 0
-575 -566 0
-575 -569 0
-570 -567 0
-576 -567 0
-576 -570 0
-574 -571 0
-610 -571 0
-610 -574 0
-575 -572 0
-611 -572 0
-611 -575 0
-576 -573 0
-612 -573 0
-612 -576 0
-583 -577 0
-640 -577 0
-640 -583 0
-584 -578 0
-641 -578 0
-641 -584 0
-585 -579 0
-642 -579 0
-642 -585 0
-583 -580 0
-589 -580 0
-589 -583 0
-584 -581 0
-590 -581 0
-590 -584 0
-585 -582 0
-591 -582 0
-591 -585 0
-589 -586 0
-595 -586 0
-595 -589 0
-590 -587 0
-596 -587 0
-596 -590 0
-591 -588 0
-597 -588 0
-597 -591 0
-595 -592 0
-601 -592 0
-601 -595 0
-596 -593 0
-602 -593 0
-602 -596 0
-597 -594 0
-603 -594 0
-603 -597 0
-601 -598 0
-607 -598 0
-607 -601 0
-602 -599 0
-608 -599 0
-608 -602 0
-603 -600 0
-609 -600 0
-609 -603 0
-607 -604 0
-613 -604 0
-613 -607 0
-608 -605 0
-614 -605 0
-614 -608 0
-609 -606 0
-615 -606 0
-615 -609 0
-613 -610 0
-616 -610 0
-616 -613 0
-614 -611 0
-617 -611 0
-617 -614 0
-615 -612 0
-618 -612 0
-618 -615 0
-622 -616 0
-643 -616 0
-643 -622 0
-623 -617 0
-644 -617 0
-644 -623 0
-624 -618 0
-645 -618 0
-645 -624 0
-622 -619 0
-631 -619 0
-631 -622 0
-623 -620 0
-632 -620 0
-632 -623 0
-624 -621 0
-633 -621 0
-633 -624 0
-628 -625 0
-631 -625 0
-631 -628 0
-629 -626 0
-632 -626 0
-632 -629 0
-630 -627 0
-633 -627 0
-633 -630 0
-637 -634 0
-646 -634 0
-646 -637 0
-638 -635 0
-647 -635 0
-647 -638 0
-639 -636 0
-648 -636 0
-648 -639 0
-643 -640 0
-646 -640 0
-646 -643 0
-644 -641 0
-647 -641 0
-647 -644 0
-645 -642 0
-648 -642 0
-648 -645 0
