c five-cdc-xor-dimacs-v1
c graph-sha256 51bbe42d56b873b279ae618980c6f52306f7ddf1246621d3e4a0ea5c44998cef
c x rows use CryptoMiniSat convention XOR(literals)=true
p cnf 750 2750
-1 -2 -3 0
-1 -2 -4 0
-1 -2 -5 0
-1 -3 -4 0
-1 -3 -5 0
-1 -4 -5 0
-2 -3 -4 0
-2 -3 -5 0
-2 -4 -5 0
-3 -4 -5 0
1 2 3 4 0
1 2 3 5 0
1 2 4 5 0
1 3 4 5 0
2 3 4 5 0
-6 -7 -8 0
-6 -7 -9 0
-6 -7 -10 0
-6 -8 -9 0
-6 -8 -10 0
-6 -9 -10 0
-7 -8 -9 0
-7 -8 -10 0
-7 -9 -10 0
-8 -9 -10 0
6 7 8 9 0
6 7 8 10 0
6 7 9 10 0
6 8 9 10 0
7 8 9 10 0
-11 -12 -13 0
-11 -12 -14 0
-11 -12 -15 0
-11 -13 -14 0
-11 -13 -15 0
-11 -14 -15 0
-12 -13 -14 0
-12 -13 -15 0
-12 -14 -15 0
-13 -14 -15 0
11 12 13 14 0
11 12 13 15 0
11 12 14 15 0
11 13 14 15 0
12 13 14 15 0
-16 -17 -18 0
-16 -17 -19 0
-16 -17 -20 0
-16 -18 -19 0
-16 -18 -20 0
-16 -19 -20 0
-17 -18 -19 0
-17 -18 -20 0
-17 -19 -20 0
-18 -19 -20 0
16 17 18 19 0
16 17 18 20 0
16 17 19 20 0
16 18 19 20 0
17 18 19 20 0
-21 -22 -23 0
-21 -22 -24 0
-21 -22 -25 0
-21 -23 -24 0
-21 -23 -25 0
-21 -24 -25 0
-22 -23 -24 0
-22 -23 -25 0
-22 -24 -25 0
-23 -24 -25 0
21 22 23 24 0
21 22 23 25 0
21 22 24 25 0
21 23 24 25 0
22 23 24 25 0
-26 -27 -28 0
-26 -27 -29 0
-26 -27 -30 0
-26 -28 -29 0
-26 -28 -30 0
-26 -29 -30 0
-27 -28 -29 0
-27 -28 -30 0
-27 -29 -30 0
-28 -29 -30 0
26 27 28 29 0
26 27 28 30 0
26 27 29 30 0
26 28 29 30 0
27 28 29 30 0
-31 -32 -33 0
-31 -32 -34 0
-31 -32 -35 0
-31 -33 -34 0
-31 -33 -35 0
-31 -34 -35 0
-32 -33 -34 0
-32 -33 -35 0
-32 -34 -35 0
-33 -34 -35 0
31 32 33 34 0
31 32 33 35 0
31 32 34 35 0
31 33 34 35 0
32 33 34 35 0
-36 -37 -38 0
-36 -37 -39 0
-36 -37 -40 0
-36 -38 -39 0
-36 -38 -40 0
-36 -39 -40 0
-37 -38 -39 0
-37 -38 -40 0
-37 -39 -40 0
-38 -39 -40 0
36 37 38 39 0
36 37 38 40 0
36 37 39 40 0
36 38 39 40 0
37 38 39 40 0
-41 -42 -43 0
-41 -42 -44 0
-41 -42 -45 0
-41 -43 -44 0
-41 -43 -45 0
-41 -44 -45 0
-42 -43 -44 0
-42 -43 -45 0
-42 -44 -45 0
-43 -44 -45 0
41 42 43 44 0
41 42 43 45 0
41 42 44 45 0
41 43 44 45 0
42 43 44 45 0
-46 -47 -48 0
-46 -47 -49 0
-46 -47 -50 0
-46 -48 -49 0
-46 -48 -50 0
-46 -49 -50 0
-47 -48 -49 0
-47 -48 -50 0
-47 -49 -50 0
-48 -49 -50 0
46 47 48 49 0
46 47 48 50 0
46 47 49 50 0
46 48 49 50 0
47 48 49 50 0
-51 -52 -53 0
-51 -52 -54 0
-51 -52 -55 0
-51 -53 -54 0
-51 -53 -55 0
-51 -54 -55 0
-52 -53 -54 0
-52 -53 -55 0
-52 -54 -55 0
-53 -54 -55 0
51 52 53 54 0
51 52 53 55 0
51 52 54 55 0
51 53 54 55 0
52 53 54 55 0
-56 -57 -58 0
-56 -57 -59 0
-56 -57 -60 0
-56 -58 -59 0
-56 -58 -60 0
-56 -59 -60 0
-57 -58 -59 0
-57 -58 -60 0
-57 -59 -60 0
-58 -59 -60 0
56 57 58 59 0
56 57 58 60 0
56 57 59 60 0
56 58 59 60 0
57 58 59 60 0
-61 -62 -63 0
-61 -62 -64 0
-61 -62 -65 0
-61 -63 -64 0
-61 -63 -65 0
-61 -64 -65 0
-62 -63 -64 0
-62 -63 -65 0
-62 -64 -65 0
-63 -64 -65 0
61 62 63 64 0
61 62 63 65 0
61 62 64 65 0
61 63 64 65 0
62 63 64 65 0
-66 -67 -68 0
-66 -67 -69 0
-66 -67 -70 0
-66 -68 -69 0
-66 -68 -70 0
-66 -69 -70 0
-67 -68 -69 0
-67 -68 -70 0
-67 -69 -70 0
-68 -69 -70 0
66 67 68 69 0
66 67 68 70 0
66 67 69 70 0
66 68 69 70 0
67 68 69 70 0
-71 -72 -73 0
-71 -72 -74 0
-71 -72 -75 0
-71 -73 -74 0
-71 -73 -75 0
-71 -74 -75 0
-72 -73 -74 0
-72 -73 -75 0
-72 -74 -75 0
-73 -74 -75 0
71 72 73 74 0
71 72 73 75 0
71 72 74 75 0
71 73 74 75 0
72 73 74 75 0
-76 -77 -78 0
-76 -77 -79 0
-76 -77 -80 0
-76 -78 -79 0
-76 -78 -80 0
-76 -79 -80 0
-77 -78 -79 0
-77 -78 -80 0
-77 -79 -80 0
-78 -79 -80 0
76 77 78 79 0
76 77 78 80 0
76 77 79 80 0
76 78 79 80 0
77 78 79 80 0
-81 -82 -83 0
-81 -82 -84 0
-81 -82 -85 0
-81 -83 -84 0
-81 -83 -85 0
-81 -84 -85 0
-82 -83 -84 0
-82 -83 -85 0
-82 -84 -85 0
-83 -84 -85 0
81 82 83 84 0
81 82 83 85 0
81 82 84 85 0
81 83 84 85 0
82 83 84 85 0
-86 -87 -88 0
-86 -87 -89 0
-86 -87 -90 0
-86 -88 -89 0
-86 -88 -90 0
-86 -89 -90 0
-87 -88 -89 0
-87 -88 -90 0
-87 -89 -90 0
-88 -89 -90 0
86 87 88 89 0
86 87 88 90 0
86 87 89 90 0
86 88 89 90 0
87 88 89 90 0
-91 -92 -93 0
-91 -92 -94 0
-91 -92 -95 0
-91 -93 -94 0
-91 -93 -95 0
-91 -94 -95 0
-92 -93 -94 0
-92 -93 -95 0
-92 -94 -95 0
-93 -94 -95 0
91 92 93 94 0
91 92 93 95 0
91 92 94 95 0
91 93 94 95 0
92 93 94 95 0
-96 -97 -98 0
-96 -97 -99 0
-96 -97 -100 0
-96 -98 -99 0
-96 -98 -100 0
-96 -99 -100 0
-97 -98 -99 0
-97 -98 -100 0
-97 -99 -100 0
-98 -99 -100 0
96 97 98 99 0
96 97 98 100 0
96 97 99 100 0
96 98 99 100 0
97 98 99 100 0
-101 -102 -103 0
-101 -102 -104 0
-101 -102 -105 0
-101 -103 -104 0
-101 -103 -105 0
-101 -104 -105 0
-102 -103 -104 0
-102 -103 -105 0
-102 -104 -105 0
-103 -104 -105 0
101 102 103 104 0
101 102 103 105 0
101 102 104 105 0
101 103 104 105 0
102 103 104 105 0
-106 -107 -108 0
-106 -107 -109 0
-106 -107 -110 0
-106 -108 -109 0
-106 -108 -110 0
-106 -109 -110 0
-107 -108 -109 0
-107 -108 -110 0
-107 -109 -110 0
-108 -109 -110 0
106 107 108 109 0
106 107 108 110 0
106 107 109 110 0
106 108 109 110 0
107 108 109 110 0
-111 -112 -113 0
-111 -112 -114 0
-111 -112 -115 0
-111 -113 -114 0
-111 -113 -115 0
-111 -114 -115 0
-112 -113 -114 0
-112 -113 -115 0
-112 -114 -115 0
-113 -114 -115 0
111 112 113 114 0
111 112 113 115 0
111 112 114 115 0
111 113 114 115 0
112 113 114 115 0
-116 -117 -118 0
-116 -117 -119 0
-116 -117 -120 0
-116 -118 -119 0
-116 -118 -120 0
-116 -119 -120 0
-117 -118 -119 0
-117 -118 -120 0
-117 -119 -120 0
-118 -119 -120 0
116 117 118 119 0
116 117 118 120 0
116 117 119 120 0
116 118 119 120 0
117 118 119 120 0
-121 -122 -123 0
-121 -122 -124 0
-121 -122 -125 0
-121 -123 -124 0
-121 -123 -125 0
-121 -124 -125 0
-122 -123 -124 0
-122 -123 -125 0
-122 -124 -125 0
-123 -124 -125 0
121 122 123 124 0
121 122 123 125 0
121 122 124 125 0
121 123 124 125 0
122 123 124 125 0
-126 -127 -128 0
-126 -127 -129 0
-126 -127 -130 0
-126 -128 -129 0
-126 -128 -130 0
-126 -129 -130 0
-127 -128 -129 0
-127 -128 -130 0
-127 -129 -130 0
-128 -129 -130 0
126 127 128 129 0
126 127 128 130 0
126 127 129 130 0
126 128 129 130 0
127 128 129 130 0
-131 -132 -133 0
-131 -132 -134 0
-131 -132 -135 0
-131 -133 -134 0
-131 -133 -135 0
-131 -134 -135 0
-132 -133 -134 0
-132 -133 -135 0
-132 -134 -135 0
-133 -134 -135 0
131 132 133 134 0
131 132 133 135 0
131 132 134 135 0
131 133 134 135 0
132 133 134 135 0
-136 -137 -138 0
-136 -137 -139 0
-136 -137 -140 0
-136 -138 -139 0
-136 -138 -140 0
-136 -139 -140 0
-137 -138 -139 0
-137 -138 -140 0
-137 -139 -140 0
-138 -139 -140 0
136 137 138 139 0
136 137 138 140 0
136 137 139 140 0
136 138 139 140 0
137 138 139 140 0
-141 -142 -143 0
-141 -142 -144 0
-141 -142 -145 0
-141 -143 -144 0
-141 -143 -145 0
-141 -144 -145 0
-142 -143 -144 0
-142 -143 -145 0
-142 -144 -145 0
-143 -144 -145 0
141 142 143 144 0
141 142 143 145 0
141 142 144 145 0
141 143 144 145 0
142 143 144 145 0
-146 -147 -148 0
-146 -147 -149 0
-146 -147 -150 0
-146 -148 -149 0
-146 -148 -150 0
-146 -149 -150 0
-147 -148 -149 0
-147 -148 -150 0
-147 -149 -150 0
-148 -149 -150 0
146 147 148 149 0
146 147 148 150 0
146 147 149 150 0
146 148 149 150 0
147 148 149 150 0
-151 -152 -153 0
-151 -152 -154 0
-151 -152 -155 0
-151 -153 -154 0
-151 -153 -155 0
-151 -154 -155 0
-152 -153 -154 0
-152 -153 -155 0
-152 -154 -155 0
-153 -154 -155 0
151 152 153 154 0
151 152 153 155 0
151 152 154 155 0
151 153 154 155 0
152 153 154 155 0
-156 -157 -158 0
-156 -157 -159 0
-156 -157 -160 0
-156 -158 -159 0
-156 -158 -160 0
-156 -159 -160 0
-157 -158 -159 0
-157 -158 -160 0
-157 -159 -160 0
-158 -159 -160 0
156 157 158 159 0
156 157 158 160 0
156 157 159 160 0
156 158 159 160 0
157 158 159 160 0
-161 -162 -163 0
-161 -162 -164 0
-161 -162 -165 0
-161 -163 -164 0
-161 -163 -165 0
-161 -164 -165 0
-162 -163 -164 0
-162 -163 -165 0
-162 -164 -165 0
-163 -164 -165 0
161 162 163 164 0
161 162 163 165 0
161 162 164 165 0
161 163 164 165 0
162 163 164 165 0
-166 -167 -168 0
-166 -167 -169 0
-166 -167 -170 0
-166 -168 -169 0
-166 -168 -170 0
-166 -169 -170 0
-167 -168 -169 0
-167 -168 -170 0
-167 -169 -170 0
-168 -169 -170 0
166 167 168 169 0
166 167 168 170 0
166 167 169 170 0
166 168 169 170 0
167 168 169 170 0
-171 -172 -173 0
-171 -172 -174 0
-171 -172 -175 0
-171 -173 -174 0
-171 -173 -175 0
-171 -174 -175 0
-172 -173 -174 0
-172 -173 -175 0
-172 -174 -175 0
-173 -174 -175 0
171 172 173 174 0
171 172 173 175 0
171 172 174 175 0
171 173 174 175 0
172 173 174 175 0
-176 -177 -178 0
-176 -177 -179 0
-176 -177 -180 0
-176 -178 -179 0
-176 -178 -180 0
-176 -179 -180 0
-177 -178 -179 0
-177 -178 -180 0
-177 -179 -180 0
-178 -179 -180 0
176 177 178 179 0
176 177 178 180 0
176 177 179 180 0
176 178 179 180 0
177 178 179 180 0
-181 -182 -183 0
-181 -182 -184 0
-181 -182 -185 0
-181 -183 -184 0
-181 -183 -185 0
-181 -184 -185 0
-182 -183 -184 0
-182 -183 -185 0
-182 -184 -185 0
-183 -184 -185 0
181 182 183 184 0
181 182 183 185 0
181 182 184 185 0
181 183 184 185 0
182 183 184 185 0
-186 -187 -188 0
-186 -187 -189 0
-186 -187 -190 0
-186 -188 -189 0
-186 -188 -190 0
-186 -189 -190 0
-187 -188 -189 0
-187 -188 -190 0
-187 -189 -190 0
-188 -189 -190 0
186 187 188 189 0
186 187 188 190 0
186 187 189 190 0
186 188 189 190 0
187 188 189 190 0
-191 -192 -193 0
-191 -192 -194 0
-191 -192 -195 0
-191 -193 -194 0
-191 -193 -195 0
-191 -194 -195 0
-192 -193 -194 0
-192 -193 -195 0
-192 -194 -195 0
-193 -194 -195 0
191 192 193 194 0
191 192 193 195 0
191 192 194 195 0
191 193 194 195 0
192 193 194 195 0
-196 -197 -198 0
-196 -197 -199 0
-196 -197 -200 0
-196 -198 -199 0
-196 -198 -200 0
-196 -199 -200 0
-197 -198 -199 0
-197 -198 -200 0
-197 -199 -200 0
-198 -199 -200 0
196 197 198 199 0
196 197 198 200 0
196 197 199 200 0
196 198 199 200 0
197 198 199 200 0
-201 -202 -203 0
-201 -202 -204 0
-201 -202 -205 0
-201 -203 -204 0
-201 -203 -205 0
-201 -204 -205 0
-202 -203 -204 0
-202 -203 -205 0
-202 -204 -205 0
-203 -204 -205 0
201 202 203 204 0
201 202 203 205 0
201 202 204 205 0
201 203 204 205 0
202 203 204 205 0
-206 -207 -208 0
-206 -207 -209 0
-206 -207 -210 0
-206 -208 -209 0
-206 -208 -210 0
-206 -209 -210 0
-207 -208 -209 0
-207 -208 -210 0
-207 -209 -210 0
-208 -209 -210 0
206 207 208 209 0
206 207 208 210 0
206 207 209 210 0
206 208 209 210 0
207 208 209 210 0
-211 -212 -213 0
-211 -212 -214 0
-211 -212 -215 0
-211 -213 -214 0
-211 -213 -215 0
-211 -214 -215 0
-212 -213 -214 0
-212 -213 -215 0
-212 -214 -215 0
-213 -214 -215 0
211 212 213 214 0
211 212 213 215 0
211 212 214 215 0
211 213 214 215 0
212 213 214 215 0
-216 -217 -218 0
-216 -217 -219 0
-216 -217 -220 0
-216 -218 -219 0
-216 -218 -220 0
-216 -219 -220 0
-217 -218 -219 0
-217 -218 -220 0
-217 -219 -220 0
-218 -219 -220 0
216 217 218 219 0
216 217 218 220 0
216 217 219 220 0
216 218 219 220 0
217 218 219 220 0
-221 -222 -223 0
-221 -222 -224 0
-221 -222 -225 0
-221 -223 -224 0
-221 -223 -225 0
-221 -224 -225 0
-222 -223 -224 0
-222 -223 -225 0
-222 -224 -225 0
-223 -224 -225 0
221 222 223 224 0
221 222 223 225 0
221 222 224 225 0
221 223 224 225 0
222 223 224 225 0
-226 -227 -228 0
-226 -227 -229 0
-226 -227 -230 0
-226 -228 -229 0
-226 -228 -230 0
-226 -229 -230 0
-227 -228 -229 0
-227 -228 -230 0
-227 -229 -230 0
-228 -229 -230 0
226 227 228 229 0
226 227 228 230 0
226 227 229 230 0
226 228 229 230 0
227 228 229 230 0
-231 -232 -233 0
-231 -232 -234 0
-231 -232 -235 0
-231 -233 -234 0
-231 -233 -235 0
-231 -234 -235 0
-232 -233 -234 0
-232 -233 -235 0
-232 -234 -235 0
-233 -234 -235 0
231 232 233 234 0
231 232 233 235 0
231 232 234 235 0
231 233 234 235 0
232 233 234 235 0
-236 -237 -238 0
-236 -237 -239 0
-236 -237 -240 0
-236 -238 -239 0
-236 -238 -240 0
-236 -239 -240 0
-237 -238 -239 0
-237 -238 -240 0
-237 -239 -240 0
-238 -239 -240 0
236 237 238 239 0
236 237 238 240 0
236 237 239 240 0
236 238 239 240 0
237 238 239 240 0
-241 -242 -243 0
-241 -242 -244 0
-241 -242 -245 0
-241 -243 -244 0
-241 -243 -245 0
-241 -244 -245 0
-242 -243 -244 0
-242 -243 -245 0
-242 -244 -245 0
-243 -244 -245 0
241 242 243 244 0
241 242 243 245 0
241 242 244 245 0
241 243 244 245 0
242 243 244 245 0
-246 -247 -248 0
-246 -247 -249 0
-246 -247 -250 0
-246 -248 -249 0
-246 -248 -250 0
-246 -249 -250 0
-247 -248 -249 0
-247 -248 -250 0
-247 -249 -250 0
-248 -249 -250 0
246 247 248 249 0
246 247 248 250 0
246 247 249 250 0
246 248 249 250 0
247 248 249 250 0
-251 -252 -253 0
-251 -252 -254 0
-251 -252 -255 0
-251 -253 -254 0
-251 -253 -255 0
-251 -254 -255 0
-252 -253 -254 0
-252 -253 -255 0
-252 -254 -255 0
-253 -254 -255 0
251 252 253 254 0
251 252 253 255 0
251 252 254 255 0
251 253 254 255 0
252 253 254 255 0
-256 -257 -258 0
-256 -257 -259 0
-256 -257 -260 0
-256 -258 -259 0
-256 -258 -260 0
-256 -259 -260 0
-257 -258 -259 0
-257 -258 -260 0
-257 -259 -260 0
-258 -259 -260 0
256 257 258 259 0
256 257 258 260 0
256 257 259 260 0
256 258 259 260 0
257 258 259 260 0
-261 -262 -263 0
-261 -262 -264 0
-261 -262 -265 0
-261 -263 -264 0
-261 -263 -265 0
-261 -264 -265 0
-262 -263 -264 0
-262 -263 -265 0
-262 -264 -265 0
-263 -264 -265 0
261 262 263 264 0
261 262 263 265 0
261 262 264 265 0
261 263 264 265 0
262 263 264 265 0
-266 -267 -268 0
-266 -267 -269 0
-266 -267 -270 0
-266 -268 -269 0
-266 -268 -270 0
-266 -269 -270 0
-267 -268 -269 0
-267 -268 -270 0
-267 -269 -270 0
-268 -269 -270 0
266 267 268 269 0
266 267 268 270 0
266 267 269 270 0
266 268 269 270 0
267 268 269 270 0
-271 -272 -273 0
-271 -272 -274 0
-271 -272 -275 0
-271 -273 -274 0
-271 -273 -275 0
-271 -274 -275 0
-272 -273 -274 0
-272 -273 -275 0
-272 -274 -275 0
-273 -274 -275 0
271 272 273 274 0
271 272 273 275 0
271 272 274 275 0
271 273 274 275 0
272 273 274 275 0
-276 -277 -278 0
-276 -277 -279 0
-276 -277 -280 0
-276 -278 -279 0
-276 -278 -280 0
-276 -279 -280 0
-277 -278 -279 0
-277 -278 -280 0
-277 -279 -280 0
-278 -279 -280 0
276 277 278 279 0
276 277 278 280 0
276 277 279 280 0
276 278 279 280 0
277 278 279 280 0
-281 -282 -283 0
-281 -282 -284 0
-281 -282 -285 0
-281 -283 -284 0
-281 -283 -285 0
-281 -284 -285 0
-282 -283 -284 0
-282 -283 -285 0
-282 -284 -285 0
-283 -284 -285 0
281 282 283 284 0
281 282 283 285 0
281 282 284 285 0
281 283 284 285 0
282 283 284 285 0
-286 -287 -288 0
-286 -287 -289 0
-286 -287 -290 0
-286 -288 -289 0
-286 -288 -290 0
-286 -289 -290 0
-287 -288 -289 0
-287 -288 -290 0
-287 -289 -290 0
-288 -289 -290 0
286 287 288 289 0
286 287 288 290 0
286 287 289 290 0
286 288 289 290 0
287 288 289 290 0
-291 -292 -293 0
-291 -292 -294 0
-291 -292 -295 0
-291 -293 -294 0
-291 -293 -295 0
-291 -294 -295 0
-292 -293 -294 0
-292 -293 -295 0
-292 -294 -295 0
-293 -294 -295 0
291 292 293 294 0
291 292 293 295 0
291 292 294 295 0
291 293 294 295 0
292 293 294 295 0
-296 -297 -298 0
-296 -297 -299 0
-296 -297 -300 0
-296 -298 -299 0
-296 -298 -300 0
-296 -299 -300 0
-297 -298 -299 0
-297 -298 -300 0
-297 -299 -300 0
-298 -299 -300 0
296 297 298 299 0
296 297 298 300 0
296 297 299 300 0
296 298 299 300 0
297 298 299 300 0
-301 -302 -303 0
-301 -302 -304 0
-301 -302 -305 0
-301 -303 -304 0
-301 -303 -305 0
-301 -304 -305 0
-302 -303 -304 0
-302 -303 -305 0
-302 -304 -305 0
-303 -304 -305 0
301 302 303 304 0
301 302 303 305 0
301 302 304 305 0
301 303 304 305 0
302 303 304 305 0
-306 -307 -308 0
-306 -307 -309 0
-306 -307 -310 0
-306 -308 -309 0
-306 -308 -310 0
-306 -309 -310 0
-307 -308 -309 0
-307 -308 -310 0
-307 -309 -310 0
-308 -309 -310 0
306 307 308 309 0
306 307 308 310 0
306 307 309 310 0
306 308 309 310 0
307 308 309 310 0
-311 -312 -313 0
-311 -312 -314 0
-311 -312 -315 0
-311 -313 -314 0
-311 -313 -315 0
-311 -314 -315 0
-312 -313 -314 0
-312 -313 -315 0
-312 -314 -315 0
-313 -314 -315 0
311 312 313 314 0
311 312 313 315 0
311 312 314 315 0
311 313 314 315 0
312 313 314 315 0
-316 -317 -318 0
-316 -317 -319 0
-316 -317 -320 0
-316 -318 -319 0
-316 -318 -320 0
-316 -319 -320 0
-317 -318 -319 0
-317 -318 -320 0
-317 -319 -320 0
-318 -319 -320 0
316 317 318 319 0
316 317 318 320 0
316 317 319 320 0
316 318 319 320 0
317 318 319 320 0
-321 -322 -323 0
-321 -322 -324 0
-321 -322 -325 0
-321 -323 -324 0
-321 -323 -325 0
-321 -324 -325 0
-322 -323 -324 0
-322 -323 -325 0
-322 -324 -325 0
-323 -324 -325 0
321 322 323 324 0
321 322 323 325 0
321 322 324 325 0
321 323 324 325 0
322 323 324 325 0
-326 -327 -328 0
-326 -327 -329 0
-326 -327 -330 0
-326 -328 -329 0
-326 -328 -330 0
-326 -329 -330 0
-327 -328 -329 0
-327 -328 -330 0
-327 -329 -330 0
-328 -329 -330 0
326 327 328 329 0
326 327 328 330 0
326 327 329 330 0
326 328 329 330 0
327 328 329 330 0
-331 -332 -333 0
-331 -332 -334 0
-331 -332 -335 0
-331 -333 -334 0
-331 -333 -335 0
-331 -334 -335 0
-332 -333 -334 0
-332 -333 -335 0
-332 -334 -335 0
-333 -334 -335 0
331 332 333 334 0
331 332 333 335 0
331 332 334 335 0
331 333 334 335 0
332 333 334 335 0
-336 -337 -338 0
-336 -337 -339 0
-336 -337 -340 0
-336 -338 -339 0
-336 -338 -340 0
-336 -339 -340 0
-337 -338 -339 0
-337 -338 -340 0
-337 -339 -340 0
-338 -339 -340 0
336 337 338 339 0
336 337 338 340 0
336 337 339 340 0
336 338 339 340 0
337 338 339 340 0
-341 -342 -343 0
-341 -342 -344 0
-341 -342 -345 0
-341 -343 -344 0
-341 -343 -345 0
-341 -344 -345 0
-342 -343 -344 0
-342 -343 -345 0
-342 -344 -345 0
-343 -344 -345 0
341 342 343 344 0
341 342 343 345 0
341 342 344 345 0
341 343 344 345 0
342 343 344 345 0
-346 -347 -348 0
-346 -347 -349 0
-346 -347 -350 0
-346 -348 -349 0
-346 -348 -350 0
-346 -349 -350 0
-347 -348 -349 0
-347 -348 -350 0
-347 -349 -350 0
-348 -349 -350 0
346 347 348 349 0
346 347 348 350 0
346 347 349 350 0
346 348 349 350 0
347 348 349 350 0
-351 -352 -353 0
-351 -352 -354 0
-351 -352 -355 0
-351 -353 -354 0
-351 -353 -355 0
-351 -354 -355 0
-352 -353 -354 0
-352 -353 -355 0
-352 -354 -355 0
-353 -354 -355 0
351 352 353 354 0
351 352 353 355 0
351 352 354 355 0
351 353 354 355 0
352 353 354 355 0
-356 -357 -358 0
-356 -357 -359 0
-356 -357 -360 0
-356 -358 -359 0
-356 -358 -360 0
-356 -359 -360 0
-357 -358 -359 0
-357 -358 -360 0
-357 -359 -360 0
-358 -359 -360 0
356 357 358 359 0
356 357 358 360 0
356 357 359 360 0
356 358 359 360 0
357 358 359 360 0
-361 -362 -363 0
-361 -362 -364 0
-361 -362 -365 0
-361 -363 -364 0
-361 -363 -365 0
-361 -364 -365 0
-362 -363 -364 0
-362 -363 -365 0
-362 -364 -365 0
-363 -364 -365 0
361 362 363 364 0
361 362 363 365 0
361 362 364 365 0
361 363 364 365 0
362 363 364 365 0
-366 -367 -368 0
-366 -367 -369 0
-366 -367 -370 0
-366 -368 -369 0
-366 -368 -370 0
-366 -369 -370 0
-367 -368 -369 0
-367 -368 -370 0
-367 -369 -370 0
-368 -369 -370 0
366 367 368 369 0
366 367 368 370 0
366 367 369 370 0
366 368 369 370 0
367 368 369 370 0
-371 -372 -373 0
-371 -372 -374 0
-371 -372 -375 0
-371 -373 -374 0
-371 -373 -375 0
-371 -374 -375 0
-372 -373 -374 0
-372 -373 -375 0
-372 -374 -375 0
-373 -374 -375 0
371 372 373 374 0
371 372 373 375 0
371 372 374 375 0
371 373 374 375 0
372 373 374 375 0
-376 -377 -378 0
-376 -377 -379 0
-376 -377 -380 0
-376 -378 -379 0
-376 -378 -380 0
-376 -379 -380 0
-377 -378 -379 0
-377 -378 -380 0
-377 -379 -380 0
-378 -379 -380 0
376 377 378 379 0
376 377 378 380 0
376 377 379 380 0
376 378 379 380 0
377 378 379 380 0
-381 -382 -383 0
-381 -382 -384 0
-381 -382 -385 0
-381 -383 -384 0
-381 -383 -385 0
-381 -384 -385 0
-382 -383 -384 0
-382 -383 -385 0
-382 -384 -385 0
-383 -384 -385 0
381 382 383 384 0
381 382 383 385 0
381 382 384 385 0
381 383 384 385 0
382 383 384 385 0
-386 -387 -388 0
-386 -387 -389 0
-386 -387 -390 0
-386 -388 -389 0
-386 -388 -390 0
-386 -389 -390 0
-387 -388 -389 0
-387 -388 -390 0
-387 -389 -390 0
-388 -389 -390 0
386 387 388 389 0
386 387 388 390 0
386 387 389 390 0
386 388 389 390 0
387 388 389 390 0
-391 -392 -393 0
-391 -392 -394 0
-391 -392 -395 0
-391 -393 -394 0
-391 -393 -395 0
-391 -394 -395 0
-392 -393 -394 0
-392 -393 -395 0
-392 -394 -395 0
-393 -394 -395 0
391 392 393 394 0
391 392 393 395 0
391 392 394 395 0
391 393 394 395 0
392 393 394 395 0
-396 -397 -398 0
-396 -397 -399 0
-396 -397 -400 0
-396 -398 -399 0
-396 -398 -400 0
-396 -399 -400 0
-397 -398 -399 0
-397 -398 -400 0
-397 -399 -400 0
-398 -399 -400 0
396 397 398 399 0
396 397 398 400 0
396 397 399 400 0
396 398 399 400 0
397 398 399 400 0
-401 -402 -403 0
-401 -402 -404 0
-401 -402 -405 0
-401 -403 -404 0
-401 -403 -405 0
-401 -404 -405 0
-402 -403 -404 0
-402 -403 -405 0
-402 -404 -405 0
-403 -404 -405 0
401 402 403 404 0
401 402 403 405 0
401 402 404 405 0
401 403 404 405 0
402 403 404 405 0
-406 -407 -408 0
-406 -407 -409 0
-406 -407 -410 0
-406 -408 -409 0
-406 -408 -410 0
-406 -409 -410 0
-407 -408 -409 0
-407 -408 -410 0
-407 -409 -410 0
-408 -409 -410 0
406 407 408 409 0
406 407 408 410 0
406 407 409 410 0
406 408 409 410 0
407 408 409 410 0
-411 -412 -413 0
-411 -412 -414 0
-411 -412 -415 0
-411 -413 -414 0
-411 -413 -415 0
-411 -414 -415 0
-412 -413 -414 0
-412 -413 -415 0
-412 -414 -415 0
-413 -414 -415 0
411 412 413 414 0
411 412 413 415 0
411 412 414 415 0
411 413 414 415 0
412 413 414 415 0
-416 -417 -418 0
-416 -417 -419 0
-416 -417 -420 0
-416 -418 -419 0
-416 -418 -420 0
-416 -419 -420 0
-417 -418 -419 0
-417 -418 -420 0
-417 -419 -420 0
-418 -419 -420 0
416 417 418 419 0
416 417 418 420 0
416 417 419 420 0
416 418 419 420 0
417 418 419 420 0
-421 -422 -423 0
-421 -422 -424 0
-421 -422 -425 0
-421 -423 -424 0
-421 -423 -425 0
-421 -424 -425 0
-422 -423 -424 0
-422 -423 -425 0
-422 -424 -425 0
-423 -424 -425 0
421 422 423 424 0
421 422 423 425 0
421 422 424 425 0
421 423 424 425 0
422 423 424 425 0
-426 -427 -428 0
-426 -427 -429 0
-426 -427 -430 0
-426 -428 -429 0
-426 -428 -430 0
-426 -429 -430 0
-427 -428 -429 0
-427 -428 -430 0
-427 -429 -430 0
-428 -429 -430 0
426 427 428 429 0
426 427 428 430 0
426 427 429 430 0
426 428 429 430 0
427 428 429 430 0
-431 -432 -433 0
-431 -432 -434 0
-431 -432 -435 0
-431 -433 -434 0
-431 -433 -435 0
-431 -434 -435 0
-432 -433 -434 0
-432 -433 -435 0
-432 -434 -435 0
-433 -434 -435 0
431 432 433 434 0
431 432 433 435 0
431 432 434 435 0
431 433 434 435 0
432 433 434 435 0
-436 -437 -438 0
-436 -437 -439 0
-436 -437 -440 0
-436 -438 -439 0
-436 -438 -440 0
-436 -439 -440 0
-437 -438 -439 0
-437 -438 -440 0
-437 -439 -440 0
-438 -439 -440 0
436 437 438 439 0
436 437 438 440 0
436 437 439 440 0
436 438 439 440 0
437 438 439 440 0
-441 -442 -443 0
-441 -442 -444 0
-441 -442 -445 0
-441 -443 -444 0
-441 -443 -445 0
-441 -444 -445 0
-442 -443 -444 0
-442 -443 -445 0
-442 -444 -445 0
-443 -444 -445 0
441 442 443 444 0
441 442 443 445 0
441 442 444 445 0
441 443 444 445 0
442 443 444 445 0
-446 -447 -448 0
-446 -447 -449 0
-446 -447 -450 0
-446 -448 -449 0
-446 -448 -450 0
-446 -449 -450 0
-447 -448 -449 0
-447 -448 -450 0
-447 -449 -450 0
-448 -449 -450 0
446 447 448 449 0
446 447 448 450 0
446 447 449 450 0
446 448 449 450 0
447 448 449 450 0
-451 -452 -453 0
-451 -452 -454 0
-451 -452 -455 0
-451 -453 -454 0
-451 -453 -455 0
-451 -454 -455 0
-452 -453 -454 0
-452 -453 -455 0
-452 -454 -455 0
-453 -454 -455 0
451 452 453 454 0
451 452 453 455 0
451 452 454 455 0
451 453 454 455 0
452 453 454 455 0
-456 -457 -458 0
-456 -457 -459 0
-456 -457 -460 0
-456 -458 -459 0
-456 -458 -460 0
-456 -459 -460 0
-457 -458 -459 0
-457 -458 -460 0
-457 -459 -460 0
-458 -459 -460 0
456 457 458 459 0
456 457 458 460 0
456 457 459 460 0
456 458 459 460 0
457 458 459 460 0
-461 -462 -463 0
-461 -462 -464 0
-461 -462 -465 0
-461 -463 -464 0
-461 -463 -465 0
-461 -464 -465 0
-462 -463 -464 0
-462 -463 -465 0
-462 -464 -465 0
-463 -464 -465 0
461 462 463 464 0
461 462 463 465 0
461 462 464 465 0
461 463 464 465 0
462 463 464 465 0
-466 -467 -468 0
-466 -467 -469 0
-466 -467 -470 0
-466 -468 -469 0
-466 -468 -470 0
-466 -469 -470 0
-467 -468 -469 0
-467 -468 -470 0
-467 -469 -470 0
-468 -469 -470 0
466 467 468 469 0
466 467 468 470 0
466 467 469 470 0
466 468 469 470 0
467 468 469 470 0
-471 -472 -473 0
-471 -472 -474 0
-471 -472 -475 0
-471 -473 -474 0
-471 -473 -475 0
-471 -474 -475 0
-472 -473 -474 0
-472 -473 -475 0
-472 -474 -475 0
-473 -474 -475 0
471 472 473 474 0
471 472 473 475 0
471 472 474 475 0
471 473 474 475 0
472 473 474 475 0
-476 -477 -478 0
-476 -477 -479 0
-476 -477 -480 0
-476 -478 -479 0
-476 -478 -480 0
-476 -479 -480 0
-477 -478 -479 0
-477 -478 -480 0
-477 -479 -480 0
-478 -479 -480 0
476 477 478 479 0
476 477 478 480 0
476 477 479 480 0
476 478 479 480 0
477 478 479 480 0
-481 -482 -483 0
-481 -482 -484 0
-481 -482 -485 0
-481 -483 -484 0
-481 -483 -485 0
-481 -484 -485 0
-482 -483 -484 0
-482 -483 -485 0
-482 -484 -485 0
-483 -484 -485 0
481 482 483 484 0
481 482 483 485 0
481 482 484 485 0
481 483 484 485 0
482 483 484 485 0
-486 -487 -488 0
-486 -487 -489 0
-486 -487 -490 0
-486 -488 -489 0
-486 -488 -490 0
-486 -489 -490 0
-487 -488 -489 0
-487 -488 -490 0
-487 -489 -490 0
-488 -489 -490 0
486 487 488 489 0
486 487 488 490 0
486 487 489 490 0
486 488 489 490 0
487 488 489 490 0
-491 -492 -493 0
-491 -492 -494 0
-491 -492 -495 0
-491 -493 -494 0
-491 -493 -495 0
-491 -494 -495 0
-492 -493 -494 0
-492 -493 -495 0
-492 -494 -495 0
-493 -494 -495 0
491 492 493 494 0
491 492 493 495 0
491 492 494 495 0
491 493 494 495 0
492 493 494 495 0
-496 -497 -498 0
-496 -497 -499 0
-496 -497 -500 0
-496 -498 -499 0
-496 -498 -500 0
-496 -499 -500 0
-497 -498 -499 0
-497 -498 -500 0
-497 -499 -500 0
-498 -499 -500 0
496 497 498 499 0
496 497 498 500 0
496 497 499 500 0
496 498 499 500 0
497 498 499 500 0
-501 -502 -503 0
-501 -502 -504 0
-501 -502 -505 0
-501 -503 -504 0
-501 -503 -505 0
-501 -504 -505 0
-502 -503 -504 0
-502 -503 -505 0
-502 -504 -505 0
-503 -504 -505 0
501 502 503 504 0
501 502 503 505 0
501 502 504 505 0
501 503 504 505 0
502 503 504 505 0
-506 -507 -508 0
-506 -507 -509 0
-506 -507 -510 0
-506 -508 -509 0
-506 -508 -510 0
-506 -509 -510 0
-507 -508 -509 0
-507 -508 -510 0
-507 -509 -510 0
-508 -509 -510 0
506 507 508 509 0
506 507 508 510 0
506 507 509 510 0
506 508 509 510 0
507 508 509 510 0
-511 -512 -513 0
-511 -512 -514 0
-511 -512 -515 0
-511 -513 -514 0
-511 -513 -515 0
-511 -514 -515 0
-512 -513 -514 0
-512 -513 -515 0
-512 -514 -515 0
-513 -514 -515 0
511 512 513 514 0
511 512 513 515 0
511 512 514 515 0
511 513 514 515 0
512 513 514 515 0
-516 -517 -518 0
-516 -517 -519 0
-516 -517 -520 0
-516 -518 -519 0
-516 -518 -520 0
-516 -519 -520 0
-517 -518 -519 0
-517 -518 -520 0
-517 -519 -520 0
-518 -519 -520 0
516 517 518 519 0
516 517 518 520 0
516 517 519 520 0
516 518 519 520 0
517 518 519 520 0
-521 -522 -523 0
-521 -522 -524 0
-521 -522 -525 0
-521 -523 -524 0
-521 -523 -525 0
-521 -524 -525 0
-522 -523 -524 0
-522 -523 -525 0
-522 -524 -525 0
-523 -524 -525 0
521 522 523 524 0
521 522 523 525 0
521 522 524 525 0
521 523 524 525 0
522 523 524 525 0
-526 -527 -528 0
-526 -527 -529 0
-526 -527 -530 0
-526 -528 -529 0
-526 -528 -530 0
-526 -529 -530 0
-527 -528 -529 0
-527 -528 -530 0
-527 -529 -530 0
-528 -529 -530 0
526 527 528 529 0
526 527 528 530 0
526 527 529 530 0
526 528 529 530 0
527 528 529 530 0
-531 -532 -533 0
-531 -532 -534 0
-531 -532 -535 0
-531 -533 -534 0
-531 -533 -535 0
-531 -534 -535 0
-532 -533 -534 0
-532 -533 -535 0
-532 -534 -535 0
-533 -534 -535 0
531 532 533 534 0
531 532 533 535 0
531 532 534 535 0
531 533 534 535 0
532 533 534 535 0
-536 -537 -538 0
-536 -537 -539 0
-536 -537 -540 0
-536 -538 -539 0
-536 -538 -540 0
-536 -539 -540 0
-537 -538 -539 0
-537 -538 -540 0
-537 -539 -540 0
-538 -539 -540 0
536 537 538 539 0
536 537 538 540 0
536 537 539 540 0
536 538 539 540 0
537 538 539 540 0
-541 -542 -543 0
-541 -542 -544 0
-541 -542 -545 0
-541 -543 -544 0
-541 -543 -545 0
-541 -544 -545 0
-542 -543 -544 0
-542 -543 -545 0
-542 -544 -545 0
-543 -544 -545 0
541 542 543 544 0
541 542 543 545 0
541 542 544 545 0
541 543 544 545 0
542 543 544 545 0
-546 -547 -548 0
-546 -547 -549 0
-546 -547 -550 0
-546 -548 -549 0
-546 -548 -550 0
-546 -549 -550 0
-547 -548 -549 0
-547 -548 -550 0
-547 -549 -550 0
-548 -549 -550 0
546 547 548 549 0
546 547 548 550 0
546 547 549 550 0
546 548 549 550 0
547 548 549 550 0
-551 -552 -553 0
-551 -552 -554 0
-551 -552 -555 0
-551 -553 -554 0
-551 -553 -555 0
-551 -554 -555 0
-552 -553 -554 0
-552 -553 -555 0
-552 -554 -555 0
-553 -554 -555 0
551 552 553 554 0
551 552 553 555 0
551 552 554 555 0
551 553 554 555 0
552 553 554 555 0
-556 -557 -558 0
-556 -557 -559 0
-556 -557 -560 0
-556 -558 -559 0
-556 -558 -560 0
-556 -559 -560 0
-557 -558 -559 0
-557 -558 -560 0
-557 -559 -560 0
-558 -559 -560 0
556 557 558 559 0
556 557 558 560 0
556 557 559 560 0
556 558 559 560 0
557 558 559 560 0
-561 -562 -563 0
-561 -562 -564 0
-561 -562 -565 0
-561 -563 -564 0
-561 -563 -565 0
-561 -564 -565 0
-562 -563 -564 0
-562 -563 -565 0
-562 -564 -565 0
-563 -564 -565 0
561 562 563 564 0
561 562 563 565 0
561 562 564 565 0
561 563 564 565 0
562 563 564 565 0
-566 -567 -568 0
-566 -567 -569 0
-566 -567 -570 0
-566 -568 -569 0
-566 -568 -570 0
-566 -569 -570 0
-567 -568 -569 0
-567 -568 -570 0
-567 -569 -570 0
-568 -569 -570 0
566 567 568 569 0
566 567 568 570 0
566 567 569 570 0
566 568 569 570 0
567 568 569 570 0
-571 -572 -573 0
-571 -572 -574 0
-571 -572 -575 0
-571 -573 -574 0
-571 -573 -575 0
-571 -574 -575 0
-572 -573 -574 0
-572 -573 -575 0
-572 -574 -575 0
-573 -574 -575 0
571 572 573 574 0
571 572 573 575 0
571 572 574 575 0
571 573 574 575 0
572 573 574 575 0
-576 -577 -578 0
-576 -577 -579 0
-576 -577 -580 0
-576 -578 -579 0
-576 -578 -580 0
-576 -579 -580 0
-577 -578 -579 0
-577 -578 -580 0
-577 -579 -580 0
-578 -579 -580 0
576 577 578 579 0
576 577 578 580 0
576 577 579 580 0
576 578 579 580 0
577 578 579 580 0
-581 -582 -583 0
-581 -582 -584 0
-581 -582 -585 0
-581 -583 -584 0
-581 -583 -585 0
-581 -584 -585 0
-582 -583 -584 0
-582 -583 -585 0
-582 -584 -585 0
-583 -584 -585 0
581 582 583 584 0
581 582 583 585 0
581 582 584 585 0
581 583 584 585 0
582 583 584 585 0
-586 -587 -588 0
-586 -587 -589 0
-586 -587 -590 0
-586 -588 -589 0
-586 -588 -590 0
-586 -589 -590 0
-587 -588 -589 0
-587 -588 -590 0
-587 -589 -590 0
-588 -589 -590 0
586 587 588 589 0
586 587 588 590 0
586 587 589 590 0
586 588 589 590 0
587 588 589 590 0
-591 -592 -593 0
-591 -592 -594 0
-591 -592 -595 0
-591 -593 -594 0
-591 -593 -595 0
-591 -594 -595 0
-592 -593 -594 0
-592 -593 -595 0
-592 -594 -595 0
-593 -594 -595 0
591 592 593 594 0
591 592 593 595 0
591 592 594 595 0
591 593 594 595 0
592 593 594 595 0
-596 -597 -598 0
-596 -597 -599 0
-596 -597 -600 0
-596 -598 -599 0
-596 -598 -600 0
-596 -599 -600 0
-597 -598 -599 0
-597 -598 -600 0
-597 -599 -600 0
-598 -599 -600 0
596 597 598 599 0
596 597 598 600 0
596 597 599 600 0
596 598 599 600 0
597 598 599 600 0
-601 -602 -603 0
-601 -602 -604 0
-601 -602 -605 0
-601 -603 -604 0
-601 -603 -605 0
-601 -604 -605 0
-602 -603 -604 0
-602 -603 -605 0
-602 -604 -605 0
-603 -604 -605 0
601 602 603 604 0
601 602 603 605 0
601 602 604 605 0
601 603 604 605 0
602 603 604 605 0
-606 -607 -608 0
-606 -607 -609 0
-606 -607 -610 0
-606 -608 -609 0
-606 -608 -610 0
-606 -609 -610 0
-607 -608 -609 0
-607 -608 -610 0
-607 -609 -610 0
-608 -609 -610 0
606 607 608 609 0
606 607 608 610 0
606 607 609 610 0
606 608 609 610 0
607 608 609 610 0
-611 -612 -613 0
-611 -612 -614 0
-611 -612 -615 0
-611 -613 -614 0
-611 -613 -615 0
-611 -614 -615 0
-612 -613 -614 0
-612 -613 -615 0
-612 -614 -615 0
-613 -614 -615 0
611 612 613 614 0
611 612 613 615 0
611 612 614 615 0
611 613 614 615 0
612 613 614 615 0
-616 -617 -618 0
-616 -617 -619 0
-616 -617 -620 0
-616 -618 -619 0
-616 -618 -620 0
-616 -619 -620 0
-617 -618 -619 0
-617 -618 -620 0
-617 -619 -620 0
-618 -619 -620 0
616 617 618 619 0
616 617 618 620 0
616 617 619 620 0
616 618 619 620 0
617 618 619 620 0
-621 -622 -623 0
-621 -622 -624 0
-621 -622 -625 0
-621 -623 -624 0
-621 -623 -625 0
-621 -624 -625 0
-622 -623 -624 0
-622 -623 -625 0
-622 -624 -625 0
-623 -624 -625 0
621 622 623 624 0
621 622 623 625 0
621 622 624 625 0
621 623 624 625 0
622 623 624 625 0
-626 -627 -628 0
-626 -627 -629 0
-626 -627 -630 0
-626 -628 -629 0
-626 -628 -630 0
-626 -629 -630 0
-627 -628 -629 0
-627 -628 -630 0
-627 -629 -630 0
-628 -629 -630 0
626 627 628 629 0
626 627 628 630 0
626 627 629 630 0
626 628 629 630 0
627 628 629 630 0
-631 -632 -633 0
-631 -632 -634 0
-631 -632 -635 0
-631 -633 -634 0
-631 -633 -635 0
-631 -634 -635 0
-632 -633 -634 0
-632 -633 -635 0
-632 -634 -635 0
-633 -634 -635 0
631 632 633 634 0
631 632 633 635 0
631 632 634 635 0
631 633 634 635 0
632 633 634 635 0
-636 -637 -638 0
-636 -637 -639 0
-636 -637 -640 0
-636 -638 -639 0
-636 -638 -640 0
-636 -639 -640 0
-637 -638 -639 0
-637 -638 -640 0
-637 -639 -640 0
-638 -639 -640 0
636 637 638 639 0
636 637 638 640 0
636 637 639 640 0
636 638 639 640 0
637 638 639 640 0
-641 -642 -643 0
-641 -642 -644 0
-641 -642 -645 0
-641 -643 -644 0
-641 -643 -645 0
-641 -644 -645 0
-642 -643 -644 0
-642 -643 -645 0
-642 -644 -645 0
-643 -644 -645 0
641 642 643 644 0
641 642 643 645 0
641 642 644 645 0
641 643 644 645 0
642 643 644 645 0
-646 -647 -648 0
-646 -647 -649 0
-646 -647 -650 0
-646 -648 -649 0
-646 -648 -650 0
-646 -649 -650 0
-647 -648 -649 0
-647 -648 -650 0
-647 -649 -650 0
-648 -649 -650 0
646 647 648 649 0
646 647 648 650 0
646 647 649 650 0
646 648 649 650 0
647 648 649 650 0
-651 -652 -653 0
-651 -652 -654 0
-651 -652 -655 0
-651 -653 -654 0
-651 -653 -655 0
-651 -654 -655 0
-652 -653 -654 0
-652 -653 -655 0
-652 -654 -655 0
-653 -654 -655 0
651 652 653 654 0
651 652 653 655 0
651 652 654 655 0
651 653 654 655 0
652 653 654 655 0
-656 -657 -658 0
-656 -657 -659 0
-656 -657 -660 0
-656 -658 -659 0
-656 -658 -660 0
-656 -659 -660 0
-657 -658 -659 0
-657 -658 -660 0
-657 -659 -660 0
-658 -659 -660 0
656 657 658 659 0
656 657 658 660 0
656 657 659 660 0
656 658 659 660 0
657 658 659 660 0
-661 -662 -663 0
-661 -662 -664 0
-661 -662 -665 0
-661 -663 -664 0
-661 -663 -665 0
-661 -664 -665 0
-662 -663 -664 0
-662 -663 -665 0
-662 -664 -665 0
-663 -664 -665 0
661 662 663 664 0
661 662 663 665 0
661 662 664 665 0
661 663 664 665 0
662 663 664 665 0
-666 -667 -668 0
-666 -667 -669 0
-666 -667 -670 0
-666 -668 -669 0
-666 -668 -670 0
-666 -669 -670 0
-667 -668 -669 0
-667 -668 -670 0
-667 -669 -670 0
-668 -669 -670 0
666 667 668 669 0
666 667 668 670 0
666 667 669 670 0
666 668 669 670 0
667 668 669 670 0
-671 -672 -673 0
-671 -672 -674 0
-671 -672 -675 0
-671 -673 -674 0
-671 -673 -675 0
-671 -674 -675 0
-672 -673 -674 0
-672 -673 -675 0
-672 -674 -675 0
-673 -674 -675 0
671 672 673 674 0
671 672 673 675 0
671 672 674 675 0
671 673 674 675 0
672 673 674 675 0
-676 -677 -678 0
-676 -677 -679 0
-676 -677 -680 0
-676 -678 -679 0
-676 -678 -680 0
-676 -679 -680 0
-677 -678 -679 0
-677 -678 -680 0
-677 -679 -680 0
-678 -679 -680 0
676 677 678 679 0
676 677 678 680 0
676 677 679 680 0
676 678 679 680 0
677 678 679 680 0
-681 -682 -683 0
-681 -682 -684 0
-681 -682 -685 0
-681 -683 -684 0
-681 -683 -685 0
-681 -684 -685 0
-682 -683 -684 0
-682 -683 -685 0
-682 -684 -685 0
-683 -684 -685 0
681 682 683 684 0
681 682 683 685 0
681 682 684 685 0
681 683 684 685 0
682 683 684 685 0
-686 -687 -688 0
-686 -687 -689 0
-686 -687 -690 0
-686 -688 -689 0
-686 -688 -690 0
-686 -689 -690 0
-687 -688 -689 0
-687 -688 -690 0
-687 -689 -690 0
-688 -689 -690 0
686 687 688 689 0
686 687 688 690 0
686 687 689 690 0
686 688 689 690 0
687 688 689 690 0
-691 -692 -693 0
-691 -692 -694 0
-691 -692 -695 0
-691 -693 -694 0
-691 -693 -695 0
-691 -694 -695 0
-692 -693 -694 0
-692 -693 -695 0
-692 -694 -695 0
-693 -694 -695 0
691 692 693 694 0
691 692 693 695 0
691 692 694 695 0
691 693 694 695 0
692 693 694 695 0
-696 -697 -698 0
-696 -697 -699 0
-696 -697 -700 0
-696 -698 -699 0
-696 -698 -700 0
-696 -699 -700 0
-697 -698 -699 0
-697 -698 -700 0
-697 -699 -700 0
-698 -699 -700 0
696 697 698 699 0
696 697 698 700 0
696 697 699 700 0
696 698 699 700 0
697 698 699 700 0
-701 -702 -703 0
-701 -702 -704 0
-701 -702 -705 0
-701 -703 -704 0
-701 -703 -705 0
-701 -704 -705 0
-702 -703 -704 0
-702 -703 -705 0
-702 -704 -705 0
-703 -704 -705 0
701 702 703 704 0
701 702 703 705 0
701 702 704 705 0
701 703 704 705 0
702 703 704 705 0
-706 -707 -708 0
-706 -707 -709 0
-706 -707 -710 0
-706 -708 -709 0
-706 -708 -710 0
-706 -709 -710 0
-707 -708 -709 0
-707 -708 -710 0
-707 -709 -710 0
-708 -709 -710 0
706 707 708 709 0
706 707 708 710 0
706 707 709 710 0
706 708 709 710 0
707 708 709 710 0
-711 -712 -713 0
-711 -712 -714 0
-711 -712 -715 0
-711 -713 -714 0
-711 -713 -715 0
-711 -714 -715 0
-712 -713 -714 0
-712 -713 -715 0
-712 -714 -715 0
-713 -714 -715 0
711 712 713 714 0
711 712 713 715 0
711 712 714 715 0
711 713 714 715 0
712 713 714 715 0
-716 -717 -718 0
-716 -717 -719 0
-716 -717 -720 0
-716 -718 -719 0
-716 -718 -720 0
-716 -719 -720 0
-717 -718 -719 0
-717 -718 -720 0
-717 -719 -720 0
-718 -719 -720 0
716 717 718 719 0
716 717 718 720 0
716 717 719 720 0
716 718 719 720 0
717 718 719 720 0
-721 -722 -723 0
-721 -722 -724 0
-721 -722 -725 0
-721 -723 -724 0
-721 -723 -725 0
-721 -724 -725 0
-722 -723 -724 0
-722 -723 -725 0
-722 -724 -725 0
-723 -724 -725 0
721 722 723 724 0
721 722 723 725 0
721 722 724 725 0
721 723 724 725 0
722 723 724 725 0
-726 -727 -728 0
-726 -727 -729 0
-726 -727 -730 0
-726 -728 -729 0
-726 -728 -730 0
-726 -729 -730 0
-727 -728 -729 0
-727 -728 -730 0
-727 -729 -730 0
-728 -729 -730 0
726 727 728 729 0
726 727 728 730 0
726 727 729 730 0
726 728 729 730 0
727 728 729 730 0
-731 -732 -733 0
-731 -732 -734 0
-731 -732 -735 0
-731 -733 -734 0
-731 -733 -735 0
-731 -734 -735 0
-732 -733 -734 0
-732 -733 -735 0
-732 -734 -735 0
-733 -734 -735 0
731 732 733 734 0
731 732 733 735 0
731 732 734 735 0
731 733 734 735 0
732 733 734 735 0
-736 -737 -738 0
-736 -737 -739 0
-736 -737 -740 0
-736 -738 -739 0
-736 -738 -740 0
-736 -739 -740 0
-737 -738 -739 0
-737 -738 -740 0
-737 -739 -740 0
-738 -739 -740 0
736 737 738 739 0
736 737 738 740 0
736 737 739 740 0
736 738 739 740 0
737 738 739 740 0
-741 -742 -743 0
-741 -742 -744 0
-741 -742 -745 0
-741 -743 -744 0
-741 -743 -745 0
-741 -744 -745 0
-742 -743 -744 0
-742 -743 -745 0
-742 -744 -745 0
-743 -744 -745 0
741 742 743 744 0
741 742 743 745 0
741 742 744 745 0
741 743 744 745 0
742 743 744 745 0
-746 -747 -748 0
-746 -747 -749 0
-746 -747 -750 0
-746 -748 -749 0
-746 -748 -750 0
-746 -749 -750 0
-747 -748 -749 0
-747 -748 -750 0
-747 -749 -750 0
-748 -749 -750 0
746 747 748 749 0
746 747 748 750 0
746 747 749 750 0
746 748 749 750 0
747 748 749 750 0
x -1 6 11 0
x -2 7 12 0
x -3 8 13 0
x -4 9 14 0
x -5 10 15 0
x -1 16 21 0
x -2 17 22 0
x -3 18 23 0
x -4 19 24 0
x -5 20 25 0
x -26 31 36 0
x -27 32 37 0
x -28 33 38 0
x -29 34 39 0
x -30 35 40 0
x -6 41 46 0
x -7 42 47 0
x -8 43 48 0
x -9 44 49 0
x -10 45 50 0
x -16 51 56 0
x -17 52 57 0
x -18 53 58 0
x -19 54 59 0
x -20 55 60 0
x -26 41 61 0
x -27 42 62 0
x -28 43 63 0
x -29 44 64 0
x -30 45 65 0
x -46 51 66 0
x -47 52 67 0
x -48 53 68 0
x -49 54 69 0
x -50 55 70 0
x -71 76 81 0
x -72 77 82 0
x -73 78 83 0
x -74 79 84 0
x -75 80 85 0
x -71 86 91 0
x -72 87 92 0
x -73 88 93 0
x -74 89 94 0
x -75 90 95 0
x -86 96 101 0
x -87 97 102 0
x -88 98 103 0
x -89 99 104 0
x -90 100 105 0
x -11 106 111 0
x -12 107 112 0
x -13 108 113 0
x -14 109 114 0
x -15 110 115 0
x -116 121 126 0
x -117 122 127 0
x -118 123 128 0
x -119 124 129 0
x -120 125 130 0
x -76 106 131 0
x -77 107 132 0
x -78 108 133 0
x -79 109 134 0
x -80 110 135 0
x -91 111 116 0
x -92 112 117 0
x -93 113 118 0
x -94 114 119 0
x -95 115 120 0
x -96 121 131 0
x -97 122 132 0
x -98 123 133 0
x -99 124 134 0
x -100 125 135 0
x -136 141 146 0
x -137 142 147 0
x -138 143 148 0
x -139 144 149 0
x -140 145 150 0
x -136 151 156 0
x -137 152 157 0
x -138 153 158 0
x -139 154 159 0
x -140 155 160 0
x -21 151 161 0
x -22 152 162 0
x -23 153 163 0
x -24 154 164 0
x -25 155 165 0
x -31 166 171 0
x -32 167 172 0
x -33 168 173 0
x -34 169 174 0
x -35 170 175 0
x -176 181 186 0
x -177 182 187 0
x -178 183 188 0
x -179 184 189 0
x -180 185 190 0
x -141 166 191 0
x -142 167 192 0
x -143 168 193 0
x -144 169 194 0
x -145 170 195 0
x -156 171 176 0
x -157 172 177 0
x -158 173 178 0
x -159 174 179 0
x -160 175 180 0
x -161 181 191 0
x -162 182 192 0
x -163 183 193 0
x -164 184 194 0
x -165 185 195 0
x -196 201 206 0
x -197 202 207 0
x -198 203 208 0
x -199 204 209 0
x -200 205 210 0
x -211 216 221 0
x -212 217 222 0
x -213 218 223 0
x -214 219 224 0
x -215 220 225 0
x -211 226 231 0
x -212 227 232 0
x -213 228 233 0
x -214 229 234 0
x -215 230 235 0
x -236 241 246 0
x -237 242 247 0
x -238 243 248 0
x -239 244 249 0
x -240 245 250 0
x -196 236 251 0
x -197 237 252 0
x -198 238 253 0
x -199 239 254 0
x -200 240 255 0
x -201 256 261 0
x -202 257 262 0
x -203 258 263 0
x -204 259 264 0
x -205 260 265 0
x -216 266 271 0
x -217 267 272 0
x -218 268 273 0
x -219 269 274 0
x -220 270 275 0
x -226 256 276 0
x -227 257 277 0
x -228 258 278 0
x -229 259 279 0
x -230 260 280 0
x -241 261 266 0
x -242 262 267 0
x -243 263 268 0
x -244 264 269 0
x -245 265 270 0
x -251 271 276 0
x -252 272 277 0
x -253 273 278 0
x -254 274 279 0
x -255 275 280 0
x -146 281 286 0
x -147 282 287 0
x -148 283 288 0
x -149 284 289 0
x -150 285 290 0
x -281 291 296 0
x -282 292 297 0
x -283 293 298 0
x -284 294 299 0
x -285 295 300 0
x -206 291 301 0
x -207 292 302 0
x -208 293 303 0
x -209 294 304 0
x -210 295 305 0
x -221 306 311 0
x -222 307 312 0
x -223 308 313 0
x -224 309 314 0
x -225 310 315 0
x -186 316 321 0
x -187 317 322 0
x -188 318 323 0
x -189 319 324 0
x -190 320 325 0
x -286 306 326 0
x -287 307 327 0
x -288 308 328 0
x -289 309 329 0
x -290 310 330 0
x -296 311 316 0
x -297 312 317 0
x -298 313 318 0
x -299 314 319 0
x -300 315 320 0
x -301 321 326 0
x -302 322 327 0
x -303 323 328 0
x -304 324 329 0
x -305 325 330 0
x -331 336 341 0
x -332 337 342 0
x -333 338 343 0
x -334 339 344 0
x -335 340 345 0
x -331 346 351 0
x -332 347 352 0
x -333 348 353 0
x -334 349 354 0
x -335 350 355 0
x -231 346 356 0
x -232 347 357 0
x -233 348 358 0
x -234 349 359 0
x -235 350 360 0
x -246 361 366 0
x -247 362 367 0
x -248 363 368 0
x -249 364 369 0
x -250 365 370 0
x -371 376 381 0
x -372 377 382 0
x -373 378 383 0
x -374 379 384 0
x -375 380 385 0
x -336 361 386 0
x -337 362 387 0
x -338 363 388 0
x -339 364 389 0
x -340 365 390 0
x -351 366 371 0
x -352 367 372 0
x -353 368 373 0
x -354 369 374 0
x -355 370 375 0
x -356 376 386 0
x -357 377 387 0
x -358 378 388 0
x -359 379 389 0
x -360 380 390 0
x -391 396 401 0
x -392 397 402 0
x -393 398 403 0
x -394 399 404 0
x -395 400 405 0
x -406 411 416 0
x -407 412 417 0
x -408 413 418 0
x -409 414 419 0
x -410 415 420 0
x -406 421 426 0
x -407 422 427 0
x -408 423 428 0
x -409 424 429 0
x -410 425 430 0
x -431 436 441 0
x -432 437 442 0
x -433 438 443 0
x -434 439 444 0
x -435 440 445 0
x -391 431 446 0
x -392 432 447 0
x -393 433 448 0
x -394 434 449 0
x -395 435 450 0
x -396 451 456 0
x -397 452 457 0
x -398 453 458 0
x -399 454 459 0
x -400 455 460 0
x -411 461 466 0
x -412 462 467 0
x -413 463 468 0
x -414 464 469 0
x -415 465 470 0
x -421 451 471 0
x -422 452 472 0
x -423 453 473 0
x -424 454 474 0
x -425 455 475 0
x -436 456 461 0
x -437 457 462 0
x -438 458 463 0
x -439 459 464 0
x -440 460 465 0
x -446 466 471 0
x -447 467 472 0
x -448 468 473 0
x -449 469 474 0
x -450 470 475 0
x -341 476 481 0
x -342 477 482 0
x -343 478 483 0
x -344 479 484 0
x -345 480 485 0
x -476 486 491 0
x -477 487 492 0
x -478 488 493 0
x -479 489 494 0
x -480 490 495 0
x -401 486 496 0
x -402 487 497 0
x -403 488 498 0
x -404 489 499 0
x -405 490 500 0
x -416 501 506 0
x -417 502 507 0
x -418 503 508 0
x -419 504 509 0
x -420 505 510 0
x -381 511 516 0
x -382 512 517 0
x -383 513 518 0
x -384 514 519 0
x -385 515 520 0
x -481 501 521 0
x -482 502 522 0
x -483 503 523 0
x -484 504 524 0
x -485 505 525 0
x -491 506 511 0
x -492 507 512 0
x -493 508 513 0
x -494 509 514 0
x -495 510 515 0
x -496 516 521 0
x -497 517 522 0
x -498 518 523 0
x -499 519 524 0
x -500 520 525 0
x -526 531 536 0
x -527 532 537 0
x -528 533 538 0
x -529 534 539 0
x -530 535 540 0
x -526 541 546 0
x -527 542 547 0
x -528 543 548 0
x -529 544 549 0
x -530 545 550 0
x -426 541 551 0
x -427 542 552 0
x -428 543 553 0
x -429 544 554 0
x -430 545 555 0
x -441 556 561 0
x -442 557 562 0
x -443 558 563 0
x -444 559 564 0
x -445 560 565 0
x -566 571 576 0
x -567 572 577 0
x -568 573 578 0
x -569 574 579 0
x -570 575 580 0
x -531 556 581 0
x -532 557 582 0
x -533 558 583 0
x -534 559 584 0
x -535 560 585 0
x -546 561 566 0
x -547 562 567 0
x -548 563 568 0
x -549 564 569 0
x -550 565 570 0
x -551 571 581 0
x -552 572 582 0
x -553 573 583 0
x -554 574 584 0
x -555 575 585 0
x -586 591 596 0
x -587 592 597 0
x -588 593 598 0
x -589 594 599 0
x -590 595 600 0
x -601 606 611 0
x -602 607 612 0
x -603 608 613 0
x -604 609 614 0
x -605 610 615 0
x -81 601 616 0
x -82 602 617 0
x -83 603 618 0
x -84 604 619 0
x -85 605 620 0
x -126 621 626 0
x -127 622 627 0
x -128 623 628 0
x -129 624 629 0
x -130 625 630 0
x -586 621 631 0
x -587 622 632 0
x -588 623 633 0
x -589 624 634 0
x -590 625 635 0
x -591 636 641 0
x -592 637 642 0
x -593 638 643 0
x -594 639 644 0
x -595 640 645 0
x -606 646 651 0
x -607 647 652 0
x -608 648 653 0
x -609 649 654 0
x -610 650 655 0
x -616 636 656 0
x -617 637 657 0
x -618 638 658 0
x -619 639 659 0
x -620 640 660 0
x -626 641 646 0
x -627 642 647 0
x -628 643 648 0
x -629 644 649 0
x -630 645 650 0
x -631 651 656 0
x -632 652 657 0
x -633 653 658 0
x -634 654 659 0
x -635 655 660 0
x -536 661 666 0
x -537 662 667 0
x -538 663 668 0
x -539 664 669 0
x -540 665 670 0
x -661 671 676 0
x -662 672 677 0
x -663 673 678 0
x -664 674 679 0
x -665 675 680 0
x -596 671 681 0
x -597 672 682 0
x -598 673 683 0
x -599 674 684 0
x -600 675 685 0
x -611 686 691 0
x -612 687 692 0
x -613 688 693 0
x -614 689 694 0
x -615 690 695 0
x -576 696 701 0
x -577 697 702 0
x -578 698 703 0
x -579 699 704 0
x -580 700 705 0
x -666 686 706 0
x -667 687 707 0
x -668 688 708 0
x -669 689 709 0
x -670 690 710 0
x -676 691 696 0
x -677 692 697 0
x -678 693 698 0
x -679 694 699 0
x -680 695 700 0
x -681 701 706 0
x -682 702 707 0
x -683 703 708 0
x -684 704 709 0
x -685 705 710 0
x -36 711 716 0
x -37 712 717 0
x -38 713 718 0
x -39 714 719 0
x -40 715 720 0
x -56 711 721 0
x -57 712 722 0
x -58 713 723 0
x -59 714 724 0
x -60 715 725 0
x -61 726 731 0
x -62 727 732 0
x -63 728 733 0
x -64 729 734 0
x -65 730 735 0
x -66 726 736 0
x -67 727 737 0
x -68 728 738 0
x -69 729 739 0
x -70 730 740 0
x -101 741 746 0
x -102 742 747 0
x -103 743 748 0
x -104 744 749 0
x -105 745 750 0
x -716 731 741 0
x -717 732 742 0
x -718 733 743 0
x -719 734 744 0
x -720 735 745 0
x -721 736 746 0
x -722 737 747 0
x -723 738 748 0
x -724 739 749 0
x -725 740 750 0
