c vertex-resistance-3-edge-colouring-v1
c vertices 96 edges 144
c deletion-bound 6
p cnf 1098 3528
1 5 97 98 99 0
-97 -1 0
-97 -5 0
-98 -1 0
-98 -5 0
-99 -1 0
-99 -5 0
-97 -98 0
-97 -99 0
-98 -99 0
1 6 100 101 102 0
-100 -1 0
-100 -6 0
-101 -1 0
-101 -6 0
-102 -1 0
-102 -6 0
-100 -101 0
-100 -102 0
-101 -102 0
1 13 103 104 105 0
-103 -1 0
-103 -13 0
-104 -1 0
-104 -13 0
-105 -1 0
-105 -13 0
-103 -104 0
-103 -105 0
-104 -105 0
2 3 106 107 108 0
-106 -2 0
-106 -3 0
-107 -2 0
-107 -3 0
-108 -2 0
-108 -3 0
-106 -107 0
-106 -108 0
-107 -108 0
2 7 109 110 111 0
-109 -2 0
-109 -7 0
-110 -2 0
-110 -7 0
-111 -2 0
-111 -7 0
-109 -110 0
-109 -111 0
-110 -111 0
2 14 112 113 114 0
-112 -2 0
-112 -14 0
-113 -2 0
-113 -14 0
-114 -2 0
-114 -14 0
-112 -113 0
-112 -114 0
-113 -114 0
3 8 115 116 117 0
-115 -3 0
-115 -8 0
-116 -3 0
-116 -8 0
-117 -3 0
-117 -8 0
-115 -116 0
-115 -117 0
-116 -117 0
3 21 118 119 120 0
-118 -3 0
-118 -21 0
-119 -3 0
-119 -21 0
-120 -3 0
-120 -21 0
-118 -119 0
-118 -120 0
-119 -120 0
4 5 121 122 123 0
-121 -4 0
-121 -5 0
-122 -4 0
-122 -5 0
-123 -4 0
-123 -5 0
-121 -122 0
-121 -123 0
-122 -123 0
4 9 124 125 126 0
-124 -4 0
-124 -9 0
-125 -4 0
-125 -9 0
-126 -4 0
-126 -9 0
-124 -125 0
-124 -126 0
-125 -126 0
4 22 127 128 129 0
-127 -4 0
-127 -22 0
-128 -4 0
-128 -22 0
-129 -4 0
-129 -22 0
-127 -128 0
-127 -129 0
-128 -129 0
5 10 130 131 132 0
-130 -5 0
-130 -10 0
-131 -5 0
-131 -10 0
-132 -5 0
-132 -10 0
-130 -131 0
-130 -132 0
-131 -132 0
6 8 133 134 135 0
-133 -6 0
-133 -8 0
-134 -6 0
-134 -8 0
-135 -6 0
-135 -8 0
-133 -134 0
-133 -135 0
-134 -135 0
6 9 136 137 138 0
-136 -6 0
-136 -9 0
-137 -6 0
-137 -9 0
-138 -6 0
-138 -9 0
-136 -137 0
-136 -138 0
-137 -138 0
7 9 139 140 141 0
-139 -7 0
-139 -9 0
-140 -7 0
-140 -9 0
-141 -7 0
-141 -9 0
-139 -140 0
-139 -141 0
-140 -141 0
7 10 142 143 144 0
-142 -7 0
-142 -10 0
-143 -7 0
-143 -10 0
-144 -7 0
-144 -10 0
-142 -143 0
-142 -144 0
-143 -144 0
8 10 145 146 147 0
-145 -8 0
-145 -10 0
-146 -8 0
-146 -10 0
-147 -8 0
-147 -10 0
-145 -146 0
-145 -147 0
-146 -147 0
11 12 148 149 150 0
-148 -11 0
-148 -12 0
-149 -11 0
-149 -12 0
-150 -11 0
-150 -12 0
-148 -149 0
-148 -150 0
-149 -150 0
11 16 151 152 153 0
-151 -11 0
-151 -16 0
-152 -11 0
-152 -16 0
-153 -11 0
-153 -16 0
-151 -152 0
-151 -153 0
-152 -153 0
11 81 154 155 156 0
-154 -11 0
-154 -81 0
-155 -11 0
-155 -81 0
-156 -11 0
-156 -81 0
-154 -155 0
-154 -156 0
-155 -156 0
12 13 157 158 159 0
-157 -12 0
-157 -13 0
-158 -12 0
-158 -13 0
-159 -12 0
-159 -13 0
-157 -158 0
-157 -159 0
-158 -159 0
12 17 160 161 162 0
-160 -12 0
-160 -17 0
-161 -12 0
-161 -17 0
-162 -12 0
-162 -17 0
-160 -161 0
-160 -162 0
-161 -162 0
13 18 163 164 165 0
-163 -13 0
-163 -18 0
-164 -13 0
-164 -18 0
-165 -13 0
-165 -18 0
-163 -164 0
-163 -165 0
-164 -165 0
14 16 166 167 168 0
-166 -14 0
-166 -16 0
-167 -14 0
-167 -16 0
-168 -14 0
-168 -16 0
-166 -167 0
-166 -168 0
-167 -168 0
14 17 169 170 171 0
-169 -14 0
-169 -17 0
-170 -14 0
-170 -17 0
-171 -14 0
-171 -17 0
-169 -170 0
-169 -171 0
-170 -171 0
15 17 172 173 174 0
-172 -15 0
-172 -17 0
-173 -15 0
-173 -17 0
-174 -15 0
-174 -17 0
-172 -173 0
-172 -174 0
-173 -174 0
15 18 175 176 177 0
-175 -15 0
-175 -18 0
-176 -15 0
-176 -18 0
-177 -15 0
-177 -18 0
-175 -176 0
-175 -177 0
-176 -177 0
15 82 178 179 180 0
-178 -15 0
-178 -82 0
-179 -15 0
-179 -82 0
-180 -15 0
-180 -82 0
-178 -179 0
-178 -180 0
-179 -180 0
16 18 181 182 183 0
-181 -16 0
-181 -18 0
-182 -16 0
-182 -18 0
-183 -16 0
-183 -18 0
-181 -182 0
-181 -183 0
-182 -183 0
19 20 184 185 186 0
-184 -19 0
-184 -20 0
-185 -19 0
-185 -20 0
-186 -19 0
-186 -20 0
-184 -185 0
-184 -186 0
-185 -186 0
19 24 187 188 189 0
-187 -19 0
-187 -24 0
-188 -19 0
-188 -24 0
-189 -19 0
-189 -24 0
-187 -188 0
-187 -189 0
-188 -189 0
19 37 190 191 192 0
-190 -19 0
-190 -37 0
-191 -19 0
-191 -37 0
-192 -19 0
-192 -37 0
-190 -191 0
-190 -192 0
-191 -192 0
20 21 193 194 195 0
-193 -20 0
-193 -21 0
-194 -20 0
-194 -21 0
-195 -20 0
-195 -21 0
-193 -194 0
-193 -195 0
-194 -195 0
20 25 196 197 198 0
-196 -20 0
-196 -25 0
-197 -20 0
-197 -25 0
-198 -20 0
-198 -25 0
-196 -197 0
-196 -198 0
-197 -198 0
21 26 199 200 201 0
-199 -21 0
-199 -26 0
-200 -21 0
-200 -26 0
-201 -21 0
-201 -26 0
-199 -200 0
-199 -201 0
-200 -201 0
22 24 202 203 204 0
-202 -22 0
-202 -24 0
-203 -22 0
-203 -24 0
-204 -22 0
-204 -24 0
-202 -203 0
-202 -204 0
-203 -204 0
22 25 205 206 207 0
-205 -22 0
-205 -25 0
-206 -22 0
-206 -25 0
-207 -22 0
-207 -25 0
-205 -206 0
-205 -207 0
-206 -207 0
23 25 208 209 210 0
-208 -23 0
-208 -25 0
-209 -23 0
-209 -25 0
-210 -23 0
-210 -25 0
-208 -209 0
-208 -210 0
-209 -210 0
23 26 211 212 213 0
-211 -23 0
-211 -26 0
-212 -23 0
-212 -26 0
-213 -23 0
-213 -26 0
-211 -212 0
-211 -213 0
-212 -213 0
23 41 214 215 216 0
-214 -23 0
-214 -41 0
-215 -23 0
-215 -41 0
-216 -23 0
-216 -41 0
-214 -215 0
-214 -216 0
-215 -216 0
24 26 217 218 219 0
-217 -24 0
-217 -26 0
-218 -24 0
-218 -26 0
-219 -24 0
-219 -26 0
-217 -218 0
-217 -219 0
-218 -219 0
27 31 220 221 222 0
-220 -27 0
-220 -31 0
-221 -27 0
-221 -31 0
-222 -27 0
-222 -31 0
-220 -221 0
-220 -222 0
-221 -222 0
27 32 223 224 225 0
-223 -27 0
-223 -32 0
-224 -27 0
-224 -32 0
-225 -27 0
-225 -32 0
-223 -224 0
-223 -225 0
-224 -225 0
27 39 226 227 228 0
-226 -27 0
-226 -39 0
-227 -27 0
-227 -39 0
-228 -27 0
-228 -39 0
-226 -227 0
-226 -228 0
-227 -228 0
28 29 229 230 231 0
-229 -28 0
-229 -29 0
-230 -28 0
-230 -29 0
-231 -28 0
-231 -29 0
-229 -230 0
-229 -231 0
-230 -231 0
28 33 232 233 234 0
-232 -28 0
-232 -33 0
-233 -28 0
-233 -33 0
-234 -28 0
-234 -33 0
-232 -233 0
-232 -234 0
-233 -234 0
28 40 235 236 237 0
-235 -28 0
-235 -40 0
-236 -28 0
-236 -40 0
-237 -28 0
-237 -40 0
-235 -236 0
-235 -237 0
-236 -237 0
29 34 238 239 240 0
-238 -29 0
-238 -34 0
-239 -29 0
-239 -34 0
-240 -29 0
-240 -34 0
-238 -239 0
-238 -240 0
-239 -240 0
29 47 241 242 243 0
-241 -29 0
-241 -47 0
-242 -29 0
-242 -47 0
-243 -29 0
-243 -47 0
-241 -242 0
-241 -243 0
-242 -243 0
30 31 244 245 246 0
-244 -30 0
-244 -31 0
-245 -30 0
-245 -31 0
-246 -30 0
-246 -31 0
-244 -245 0
-244 -246 0
-245 -246 0
30 35 247 248 249 0
-247 -30 0
-247 -35 0
-248 -30 0
-248 -35 0
-249 -30 0
-249 -35 0
-247 -248 0
-247 -249 0
-248 -249 0
30 48 250 251 252 0
-250 -30 0
-250 -48 0
-251 -30 0
-251 -48 0
-252 -30 0
-252 -48 0
-250 -251 0
-250 -252 0
-251 -252 0
31 36 253 254 255 0
-253 -31 0
-253 -36 0
-254 -31 0
-254 -36 0
-255 -31 0
-255 -36 0
-253 -254 0
-253 -255 0
-254 -255 0
32 34 256 257 258 0
-256 -32 0
-256 -34 0
-257 -32 0
-257 -34 0
-258 -32 0
-258 -34 0
-256 -257 0
-256 -258 0
-257 -258 0
32 35 259 260 261 0
-259 -32 0
-259 -35 0
-260 -32 0
-260 -35 0
-261 -32 0
-261 -35 0
-259 -260 0
-259 -261 0
-260 -261 0
33 35 262 263 264 0
-262 -33 0
-262 -35 0
-263 -33 0
-263 -35 0
-264 -33 0
-264 -35 0
-262 -263 0
-262 -264 0
-263 -264 0
33 36 265 266 267 0
-265 -33 0
-265 -36 0
-266 -33 0
-266 -36 0
-267 -33 0
-267 -36 0
-265 -266 0
-265 -267 0
-266 -267 0
34 36 268 269 270 0
-268 -34 0
-268 -36 0
-269 -34 0
-269 -36 0
-270 -34 0
-270 -36 0
-268 -269 0
-268 -270 0
-269 -270 0
37 38 271 272 273 0
-271 -37 0
-271 -38 0
-272 -37 0
-272 -38 0
-273 -37 0
-273 -38 0
-271 -272 0
-271 -273 0
-272 -273 0
37 42 274 275 276 0
-274 -37 0
-274 -42 0
-275 -37 0
-275 -42 0
-276 -37 0
-276 -42 0
-274 -275 0
-274 -276 0
-275 -276 0
38 39 277 278 279 0
-277 -38 0
-277 -39 0
-278 -38 0
-278 -39 0
-279 -38 0
-279 -39 0
-277 -278 0
-277 -279 0
-278 -279 0
38 43 280 281 282 0
-280 -38 0
-280 -43 0
-281 -38 0
-281 -43 0
-282 -38 0
-282 -43 0
-280 -281 0
-280 -282 0
-281 -282 0
39 44 283 284 285 0
-283 -39 0
-283 -44 0
-284 -39 0
-284 -44 0
-285 -39 0
-285 -44 0
-283 -284 0
-283 -285 0
-284 -285 0
40 42 286 287 288 0
-286 -40 0
-286 -42 0
-287 -40 0
-287 -42 0
-288 -40 0
-288 -42 0
-286 -287 0
-286 -288 0
-287 -288 0
40 43 289 290 291 0
-289 -40 0
-289 -43 0
-290 -40 0
-290 -43 0
-291 -40 0
-291 -43 0
-289 -290 0
-289 -291 0
-290 -291 0
41 43 292 293 294 0
-292 -41 0
-292 -43 0
-293 -41 0
-293 -43 0
-294 -41 0
-294 -43 0
-292 -293 0
-292 -294 0
-293 -294 0
41 44 295 296 297 0
-295 -41 0
-295 -44 0
-296 -41 0
-296 -44 0
-297 -41 0
-297 -44 0
-295 -296 0
-295 -297 0
-296 -297 0
42 44 298 299 300 0
-298 -42 0
-298 -44 0
-299 -42 0
-299 -44 0
-300 -42 0
-300 -44 0
-298 -299 0
-298 -300 0
-299 -300 0
45 46 301 302 303 0
-301 -45 0
-301 -46 0
-302 -45 0
-302 -46 0
-303 -45 0
-303 -46 0
-301 -302 0
-301 -303 0
-302 -303 0
45 50 304 305 306 0
-304 -45 0
-304 -50 0
-305 -45 0
-305 -50 0
-306 -45 0
-306 -50 0
-304 -305 0
-304 -306 0
-305 -306 0
45 63 307 308 309 0
-307 -45 0
-307 -63 0
-308 -45 0
-308 -63 0
-309 -45 0
-309 -63 0
-307 -308 0
-307 -309 0
-308 -309 0
46 47 310 311 312 0
-310 -46 0
-310 -47 0
-311 -46 0
-311 -47 0
-312 -46 0
-312 -47 0
-310 -311 0
-310 -312 0
-311 -312 0
46 51 313 314 315 0
-313 -46 0
-313 -51 0
-314 -46 0
-314 -51 0
-315 -46 0
-315 -51 0
-313 -314 0
-313 -315 0
-314 -315 0
47 52 316 317 318 0
-316 -47 0
-316 -52 0
-317 -47 0
-317 -52 0
-318 -47 0
-318 -52 0
-316 -317 0
-316 -318 0
-317 -318 0
48 50 319 320 321 0
-319 -48 0
-319 -50 0
-320 -48 0
-320 -50 0
-321 -48 0
-321 -50 0
-319 -320 0
-319 -321 0
-320 -321 0
48 51 322 323 324 0
-322 -48 0
-322 -51 0
-323 -48 0
-323 -51 0
-324 -48 0
-324 -51 0
-322 -323 0
-322 -324 0
-323 -324 0
49 51 325 326 327 0
-325 -49 0
-325 -51 0
-326 -49 0
-326 -51 0
-327 -49 0
-327 -51 0
-325 -326 0
-325 -327 0
-326 -327 0
49 52 328 329 330 0
-328 -49 0
-328 -52 0
-329 -49 0
-329 -52 0
-330 -49 0
-330 -52 0
-328 -329 0
-328 -330 0
-329 -330 0
49 67 331 332 333 0
-331 -49 0
-331 -67 0
-332 -49 0
-332 -67 0
-333 -49 0
-333 -67 0
-331 -332 0
-331 -333 0
-332 -333 0
50 52 334 335 336 0
-334 -50 0
-334 -52 0
-335 -50 0
-335 -52 0
-336 -50 0
-336 -52 0
-334 -335 0
-334 -336 0
-335 -336 0
53 57 337 338 339 0
-337 -53 0
-337 -57 0
-338 -53 0
-338 -57 0
-339 -53 0
-339 -57 0
-337 -338 0
-337 -339 0
-338 -339 0
53 58 340 341 342 0
-340 -53 0
-340 -58 0
-341 -53 0
-341 -58 0
-342 -53 0
-342 -58 0
-340 -341 0
-340 -342 0
-341 -342 0
53 65 343 344 345 0
-343 -53 0
-343 -65 0
-344 -53 0
-344 -65 0
-345 -53 0
-345 -65 0
-343 -344 0
-343 -345 0
-344 -345 0
54 55 346 347 348 0
-346 -54 0
-346 -55 0
-347 -54 0
-347 -55 0
-348 -54 0
-348 -55 0
-346 -347 0
-346 -348 0
-347 -348 0
54 59 349 350 351 0
-349 -54 0
-349 -59 0
-350 -54 0
-350 -59 0
-351 -54 0
-351 -59 0
-349 -350 0
-349 -351 0
-350 -351 0
54 66 352 353 354 0
-352 -54 0
-352 -66 0
-353 -54 0
-353 -66 0
-354 -54 0
-354 -66 0
-352 -353 0
-352 -354 0
-353 -354 0
55 60 355 356 357 0
-355 -55 0
-355 -60 0
-356 -55 0
-356 -60 0
-357 -55 0
-357 -60 0
-355 -356 0
-355 -357 0
-356 -357 0
55 73 358 359 360 0
-358 -55 0
-358 -73 0
-359 -55 0
-359 -73 0
-360 -55 0
-360 -73 0
-358 -359 0
-358 -360 0
-359 -360 0
56 57 361 362 363 0
-361 -56 0
-361 -57 0
-362 -56 0
-362 -57 0
-363 -56 0
-363 -57 0
-361 -362 0
-361 -363 0
-362 -363 0
56 61 364 365 366 0
-364 -56 0
-364 -61 0
-365 -56 0
-365 -61 0
-366 -56 0
-366 -61 0
-364 -365 0
-364 -366 0
-365 -366 0
56 74 367 368 369 0
-367 -56 0
-367 -74 0
-368 -56 0
-368 -74 0
-369 -56 0
-369 -74 0
-367 -368 0
-367 -369 0
-368 -369 0
57 62 370 371 372 0
-370 -57 0
-370 -62 0
-371 -57 0
-371 -62 0
-372 -57 0
-372 -62 0
-370 -371 0
-370 -372 0
-371 -372 0
58 60 373 374 375 0
-373 -58 0
-373 -60 0
-374 -58 0
-374 -60 0
-375 -58 0
-375 -60 0
-373 -374 0
-373 -375 0
-374 -375 0
58 61 376 377 378 0
-376 -58 0
-376 -61 0
-377 -58 0
-377 -61 0
-378 -58 0
-378 -61 0
-376 -377 0
-376 -378 0
-377 -378 0
59 61 379 380 381 0
-379 -59 0
-379 -61 0
-380 -59 0
-380 -61 0
-381 -59 0
-381 -61 0
-379 -380 0
-379 -381 0
-380 -381 0
59 62 382 383 384 0
-382 -59 0
-382 -62 0
-383 -59 0
-383 -62 0
-384 -59 0
-384 -62 0
-382 -383 0
-382 -384 0
-383 -384 0
60 62 385 386 387 0
-385 -60 0
-385 -62 0
-386 -60 0
-386 -62 0
-387 -60 0
-387 -62 0
-385 -386 0
-385 -387 0
-386 -387 0
63 64 388 389 390 0
-388 -63 0
-388 -64 0
-389 -63 0
-389 -64 0
-390 -63 0
-390 -64 0
-388 -389 0
-388 -390 0
-389 -390 0
63 68 391 392 393 0
-391 -63 0
-391 -68 0
-392 -63 0
-392 -68 0
-393 -63 0
-393 -68 0
-391 -392 0
-391 -393 0
-392 -393 0
64 65 394 395 396 0
-394 -64 0
-394 -65 0
-395 -64 0
-395 -65 0
-396 -64 0
-396 -65 0
-394 -395 0
-394 -396 0
-395 -396 0
64 69 397 398 399 0
-397 -64 0
-397 -69 0
-398 -64 0
-398 -69 0
-399 -64 0
-399 -69 0
-397 -398 0
-397 -399 0
-398 -399 0
65 70 400 401 402 0
-400 -65 0
-400 -70 0
-401 -65 0
-401 -70 0
-402 -65 0
-402 -70 0
-400 -401 0
-400 -402 0
-401 -402 0
66 68 403 404 405 0
-403 -66 0
-403 -68 0
-404 -66 0
-404 -68 0
-405 -66 0
-405 -68 0
-403 -404 0
-403 -405 0
-404 -405 0
66 69 406 407 408 0
-406 -66 0
-406 -69 0
-407 -66 0
-407 -69 0
-408 -66 0
-408 -69 0
-406 -407 0
-406 -408 0
-407 -408 0
67 69 409 410 411 0
-409 -67 0
-409 -69 0
-410 -67 0
-410 -69 0
-411 -67 0
-411 -69 0
-409 -410 0
-409 -411 0
-410 -411 0
67 70 412 413 414 0
-412 -67 0
-412 -70 0
-413 -67 0
-413 -70 0
-414 -67 0
-414 -70 0
-412 -413 0
-412 -414 0
-413 -414 0
68 70 415 416 417 0
-415 -68 0
-415 -70 0
-416 -68 0
-416 -70 0
-417 -68 0
-417 -70 0
-415 -416 0
-415 -417 0
-416 -417 0
71 72 418 419 420 0
-418 -71 0
-418 -72 0
-419 -71 0
-419 -72 0
-420 -71 0
-420 -72 0
-418 -419 0
-418 -420 0
-419 -420 0
71 76 421 422 423 0
-421 -71 0
-421 -76 0
-422 -71 0
-422 -76 0
-423 -71 0
-423 -76 0
-421 -422 0
-421 -423 0
-422 -423 0
71 89 424 425 426 0
-424 -71 0
-424 -89 0
-425 -71 0
-425 -89 0
-426 -71 0
-426 -89 0
-424 -425 0
-424 -426 0
-425 -426 0
72 73 427 428 429 0
-427 -72 0
-427 -73 0
-428 -72 0
-428 -73 0
-429 -72 0
-429 -73 0
-427 -428 0
-427 -429 0
-428 -429 0
72 77 430 431 432 0
-430 -72 0
-430 -77 0
-431 -72 0
-431 -77 0
-432 -72 0
-432 -77 0
-430 -431 0
-430 -432 0
-431 -432 0
73 78 433 434 435 0
-433 -73 0
-433 -78 0
-434 -73 0
-434 -78 0
-435 -73 0
-435 -78 0
-433 -434 0
-433 -435 0
-434 -435 0
74 76 436 437 438 0
-436 -74 0
-436 -76 0
-437 -74 0
-437 -76 0
-438 -74 0
-438 -76 0
-436 -437 0
-436 -438 0
-437 -438 0
74 77 439 440 441 0
-439 -74 0
-439 -77 0
-440 -74 0
-440 -77 0
-441 -74 0
-441 -77 0
-439 -440 0
-439 -441 0
-440 -441 0
75 77 442 443 444 0
-442 -75 0
-442 -77 0
-443 -75 0
-443 -77 0
-444 -75 0
-444 -77 0
-442 -443 0
-442 -444 0
-443 -444 0
75 78 445 446 447 0
-445 -75 0
-445 -78 0
-446 -75 0
-446 -78 0
-447 -75 0
-447 -78 0
-445 -446 0
-445 -447 0
-446 -447 0
75 93 448 449 450 0
-448 -75 0
-448 -93 0
-449 -75 0
-449 -93 0
-450 -75 0
-450 -93 0
-448 -449 0
-448 -450 0
-449 -450 0
76 78 451 452 453 0
-451 -76 0
-451 -78 0
-452 -76 0
-452 -78 0
-453 -76 0
-453 -78 0
-451 -452 0
-451 -453 0
-452 -453 0
79 83 454 455 456 0
-454 -79 0
-454 -83 0
-455 -79 0
-455 -83 0
-456 -79 0
-456 -83 0
-454 -455 0
-454 -456 0
-455 -456 0
79 84 457 458 459 0
-457 -79 0
-457 -84 0
-458 -79 0
-458 -84 0
-459 -79 0
-459 -84 0
-457 -458 0
-457 -459 0
-458 -459 0
79 91 460 461 462 0
-460 -79 0
-460 -91 0
-461 -79 0
-461 -91 0
-462 -79 0
-462 -91 0
-460 -461 0
-460 -462 0
-461 -462 0
80 81 463 464 465 0
-463 -80 0
-463 -81 0
-464 -80 0
-464 -81 0
-465 -80 0
-465 -81 0
-463 -464 0
-463 -465 0
-464 -465 0
80 85 466 467 468 0
-466 -80 0
-466 -85 0
-467 -80 0
-467 -85 0
-468 -80 0
-468 -85 0
-466 -467 0
-466 -468 0
-467 -468 0
80 92 469 470 471 0
-469 -80 0
-469 -92 0
-470 -80 0
-470 -92 0
-471 -80 0
-471 -92 0
-469 -470 0
-469 -471 0
-470 -471 0
81 86 472 473 474 0
-472 -81 0
-472 -86 0
-473 -81 0
-473 -86 0
-474 -81 0
-474 -86 0
-472 -473 0
-472 -474 0
-473 -474 0
82 83 475 476 477 0
-475 -82 0
-475 -83 0
-476 -82 0
-476 -83 0
-477 -82 0
-477 -83 0
-475 -476 0
-475 -477 0
-476 -477 0
82 87 478 479 480 0
-478 -82 0
-478 -87 0
-479 -82 0
-479 -87 0
-480 -82 0
-480 -87 0
-478 -479 0
-478 -480 0
-479 -480 0
83 88 481 482 483 0
-481 -83 0
-481 -88 0
-482 -83 0
-482 -88 0
-483 -83 0
-483 -88 0
-481 -482 0
-481 -483 0
-482 -483 0
84 86 484 485 486 0
-484 -84 0
-484 -86 0
-485 -84 0
-485 -86 0
-486 -84 0
-486 -86 0
-484 -485 0
-484 -486 0
-485 -486 0
84 87 487 488 489 0
-487 -84 0
-487 -87 0
-488 -84 0
-488 -87 0
-489 -84 0
-489 -87 0
-487 -488 0
-487 -489 0
-488 -489 0
85 87 490 491 492 0
-490 -85 0
-490 -87 0
-491 -85 0
-491 -87 0
-492 -85 0
-492 -87 0
-490 -491 0
-490 -492 0
-491 -492 0
85 88 493 494 495 0
-493 -85 0
-493 -88 0
-494 -85 0
-494 -88 0
-495 -85 0
-495 -88 0
-493 -494 0
-493 -495 0
-494 -495 0
86 88 496 497 498 0
-496 -86 0
-496 -88 0
-497 -86 0
-497 -88 0
-498 -86 0
-498 -88 0
-496 -497 0
-496 -498 0
-497 -498 0
89 90 499 500 501 0
-499 -89 0
-499 -90 0
-500 -89 0
-500 -90 0
-501 -89 0
-501 -90 0
-499 -500 0
-499 -501 0
-500 -501 0
89 94 502 503 504 0
-502 -89 0
-502 -94 0
-503 -89 0
-503 -94 0
-504 -89 0
-504 -94 0
-502 -503 0
-502 -504 0
-503 -504 0
90 91 505 506 507 0
-505 -90 0
-505 -91 0
-506 -90 0
-506 -91 0
-507 -90 0
-507 -91 0
-505 -506 0
-505 -507 0
-506 -507 0
90 95 508 509 510 0
-508 -90 0
-508 -95 0
-509 -90 0
-509 -95 0
-510 -90 0
-510 -95 0
-508 -509 0
-508 -510 0
-509 -510 0
91 96 511 512 513 0
-511 -91 0
-511 -96 0
-512 -91 0
-512 -96 0
-513 -91 0
-513 -96 0
-511 -512 0
-511 -513 0
-512 -513 0
92 94 514 515 516 0
-514 -92 0
-514 -94 0
-515 -92 0
-515 -94 0
-516 -92 0
-516 -94 0
-514 -515 0
-514 -516 0
-515 -516 0
92 95 517 518 519 0
-517 -92 0
-517 -95 0
-518 -92 0
-518 -95 0
-519 -92 0
-519 -95 0
-517 -518 0
-517 -519 0
-518 -519 0
93 95 520 521 522 0
-520 -93 0
-520 -95 0
-521 -93 0
-521 -95 0
-522 -93 0
-522 -95 0
-520 -521 0
-520 -522 0
-521 -522 0
93 96 523 524 525 0
-523 -93 0
-523 -96 0
-524 -93 0
-524 -96 0
-525 -93 0
-525 -96 0
-523 -524 0
-523 -525 0
-524 -525 0
94 96 526 527 528 0
-526 -94 0
-526 -96 0
-527 -94 0
-527 -96 0
-528 -94 0
-528 -96 0
-526 -527 0
-526 -528 0
-527 -528 0
-97 -100 0
-97 -103 0
-100 -103 0
-98 -101 0
-98 -104 0
-101 -104 0
-99 -102 0
-99 -105 0
-102 -105 0
-106 -109 0
-106 -112 0
-109 -112 0
-107 -110 0
-107 -113 0
-110 -113 0
-108 -111 0
-108 -114 0
-111 -114 0
-106 -115 0
-106 -118 0
-115 -118 0
-107 -116 0
-107 -119 0
-116 -119 0
-108 -117 0
-108 -120 0
-117 -120 0
-121 -124 0
-121 -127 0
-124 -127 0
-122 -125 0
-122 -128 0
-125 -128 0
-123 -126 0
-123 -129 0
-126 -129 0
-97 -121 0
-97 -130 0
-121 -130 0
-98 -122 0
-98 -131 0
-122 -131 0
-99 -123 0
-99 -132 0
-123 -132 0
-100 -133 0
-100 -136 0
-133 -136 0
-101 -134 0
-101 -137 0
-134 -137 0
-102 -135 0
-102 -138 0
-135 -138 0
-109 -139 0
-109 -142 0
-139 -142 0
-110 -140 0
-110 -143 0
-140 -143 0
-111 -141 0
-111 -144 0
-141 -144 0
-115 -133 0
-115 -145 0
-133 -145 0
-116 -134 0
-116 -146 0
-134 -146 0
-117 -135 0
-117 -147 0
-135 -147 0
-124 -136 0
-124 -139 0
-136 -139 0
-125 -137 0
-125 -140 0
-137 -140 0
-126 -138 0
-126 -141 0
-138 -141 0
-130 -142 0
-130 -145 0
-142 -145 0
-131 -143 0
-131 -146 0
-143 -146 0
-132 -144 0
-132 -147 0
-144 -147 0
-148 -151 0
-148 -154 0
-151 -154 0
-149 -152 0
-149 -155 0
-152 -155 0
-150 -153 0
-150 -156 0
-153 -156 0
-148 -157 0
-148 -160 0
-157 -160 0
-149 -158 0
-149 -161 0
-158 -161 0
-150 -159 0
-150 -162 0
-159 -162 0
-103 -157 0
-103 -163 0
-157 -163 0
-104 -158 0
-104 -164 0
-158 -164 0
-105 -159 0
-105 -165 0
-159 -165 0
-112 -166 0
-112 -169 0
-166 -169 0
-113 -167 0
-113 -170 0
-167 -170 0
-114 -168 0
-114 -171 0
-168 -171 0
-172 -175 0
-172 -178 0
-175 -178 0
-173 -176 0
-173 -179 0
-176 -179 0
-174 -177 0
-174 -180 0
-177 -180 0
-151 -166 0
-151 -181 0
-166 -181 0
-152 -167 0
-152 -182 0
-167 -182 0
-153 -168 0
-153 -183 0
-168 -183 0
-160 -169 0
-160 -172 0
-169 -172 0
-161 -170 0
-161 -173 0
-170 -173 0
-162 -171 0
-162 -174 0
-171 -174 0
-163 -175 0
-163 -181 0
-175 -181 0
-164 -176 0
-164 -182 0
-176 -182 0
-165 -177 0
-165 -183 0
-177 -183 0
-184 -187 0
-184 -190 0
-187 -190 0
-185 -188 0
-185 -191 0
-188 -191 0
-186 -189 0
-186 -192 0
-189 -192 0
-184 -193 0
-184 -196 0
-193 -196 0
-185 -194 0
-185 -197 0
-194 -197 0
-186 -195 0
-186 -198 0
-195 -198 0
-118 -193 0
-118 -199 0
-193 -199 0
-119 -194 0
-119 -200 0
-194 -200 0
-120 -195 0
-120 -201 0
-195 -201 0
-127 -202 0
-127 -205 0
-202 -205 0
-128 -203 0
-128 -206 0
-203 -206 0
-129 -204 0
-129 -207 0
-204 -207 0
-208 -211 0
-208 -214 0
-211 -214 0
-209 -212 0
-209 -215 0
-212 -215 0
-210 -213 0
-210 -216 0
-213 -216 0
-187 -202 0
-187 -217 0
-202 -217 0
-188 -203 0
-188 -218 0
-203 -218 0
-189 -204 0
-189 -219 0
-204 -219 0
-196 -205 0
-196 -208 0
-205 -208 0
-197 -206 0
-197 -209 0
-206 -209 0
-198 -207 0
-198 -210 0
-207 -210 0
-199 -211 0
-199 -217 0
-211 -217 0
-200 -212 0
-200 -218 0
-212 -218 0
-201 -213 0
-201 -219 0
-213 -219 0
-220 -223 0
-220 -226 0
-223 -226 0
-221 -224 0
-221 -227 0
-224 -227 0
-222 -225 0
-222 -228 0
-225 -228 0
-229 -232 0
-229 -235 0
-232 -235 0
-230 -233 0
-230 -236 0
-233 -236 0
-231 -234 0
-231 -237 0
-234 -237 0
-229 -238 0
-229 -241 0
-238 -241 0
-230 -239 0
-230 -242 0
-239 -242 0
-231 -240 0
-231 -243 0
-240 -243 0
-244 -247 0
-244 -250 0
-247 -250 0
-245 -248 0
-245 -251 0
-248 -251 0
-246 -249 0
-246 -252 0
-249 -252 0
-220 -244 0
-220 -253 0
-244 -253 0
-221 -245 0
-221 -254 0
-245 -254 0
-222 -246 0
-222 -255 0
-246 -255 0
-223 -256 0
-223 -259 0
-256 -259 0
-224 -257 0
-224 -260 0
-257 -260 0
-225 -258 0
-225 -261 0
-258 -261 0
-232 -262 0
-232 -265 0
-262 -265 0
-233 -263 0
-233 -266 0
-263 -266 0
-234 -264 0
-234 -267 0
-264 -267 0
-238 -256 0
-238 -268 0
-256 -268 0
-239 -257 0
-239 -269 0
-257 -269 0
-240 -258 0
-240 -270 0
-258 -270 0
-247 -259 0
-247 -262 0
-259 -262 0
-248 -260 0
-248 -263 0
-260 -263 0
-249 -261 0
-249 -264 0
-261 -264 0
-253 -265 0
-253 -268 0
-265 -268 0
-254 -266 0
-254 -269 0
-266 -269 0
-255 -267 0
-255 -270 0
-267 -270 0
-190 -271 0
-190 -274 0
-271 -274 0
-191 -272 0
-191 -275 0
-272 -275 0
-192 -273 0
-192 -276 0
-273 -276 0
-271 -277 0
-271 -280 0
-277 -280 0
-272 -278 0
-272 -281 0
-278 -281 0
-273 -279 0
-273 -282 0
-279 -282 0
-226 -277 0
-226 -283 0
-277 -283 0
-227 -278 0
-227 -284 0
-278 -284 0
-228 -279 0
-228 -285 0
-279 -285 0
-235 -286 0
-235 -289 0
-286 -289 0
-236 -287 0
-236 -290 0
-287 -290 0
-237 -288 0
-237 -291 0
-288 -291 0
-214 -292 0
-214 -295 0
-292 -295 0
-215 -293 0
-215 -296 0
-293 -296 0
-216 -294 0
-216 -297 0
-294 -297 0
-274 -286 0
-274 -298 0
-286 -298 0
-275 -287 0
-275 -299 0
-287 -299 0
-276 -288 0
-276 -300 0
-288 -300 0
-280 -289 0
-280 -292 0
-289 -292 0
-281 -290 0
-281 -293 0
-290 -293 0
-282 -291 0
-282 -294 0
-291 -294 0
-283 -295 0
-283 -298 0
-295 -298 0
-284 -296 0
-284 -299 0
-296 -299 0
-285 -297 0
-285 -300 0
-297 -300 0
-301 -304 0
-301 -307 0
-304 -307 0
-302 -305 0
-302 -308 0
-305 -308 0
-303 -306 0
-303 -309 0
-306 -309 0
-301 -310 0
-301 -313 0
-310 -313 0
-302 -311 0
-302 -314 0
-311 -314 0
-303 -312 0
-303 -315 0
-312 -315 0
-241 -310 0
-241 -316 0
-310 -316 0
-242 -311 0
-242 -317 0
-311 -317 0
-243 -312 0
-243 -318 0
-312 -318 0
-250 -319 0
-250 -322 0
-319 -322 0
-251 -320 0
-251 -323 0
-320 -323 0
-252 -321 0
-252 -324 0
-321 -324 0
-325 -328 0
-325 -331 0
-328 -331 0
-326 -329 0
-326 -332 0
-329 -332 0
-327 -330 0
-327 -333 0
-330 -333 0
-304 -319 0
-304 -334 0
-319 -334 0
-305 -320 0
-305 -335 0
-320 -335 0
-306 -321 0
-306 -336 0
-321 -336 0
-313 -322 0
-313 -325 0
-322 -325 0
-314 -323 0
-314 -326 0
-323 -326 0
-315 -324 0
-315 -327 0
-324 -327 0
-316 -328 0
-316 -334 0
-328 -334 0
-317 -329 0
-317 -335 0
-329 -335 0
-318 -330 0
-318 -336 0
-330 -336 0
-337 -340 0
-337 -343 0
-340 -343 0
-338 -341 0
-338 -344 0
-341 -344 0
-339 -342 0
-339 -345 0
-342 -345 0
-346 -349 0
-346 -352 0
-349 -352 0
-347 -350 0
-347 -353 0
-350 -353 0
-348 -351 0
-348 -354 0
-351 -354 0
-346 -355 0
-346 -358 0
-355 -358 0
-347 -356 0
-347 -359 0
-356 -359 0
-348 -357 0
-348 -360 0
-357 -360 0
-361 -364 0
-361 -367 0
-364 -367 0
-362 -365 0
-362 -368 0
-365 -368 0
-363 -366 0
-363 -369 0
-366 -369 0
-337 -361 0
-337 -370 0
-361 -370 0
-338 -362 0
-338 -371 0
-362 -371 0
-339 -363 0
-339 -372 0
-363 -372 0
-340 -373 0
-340 -376 0
-373 -376 0
-341 -374 0
-341 -377 0
-374 -377 0
-342 -375 0
-342 -378 0
-375 -378 0
-349 -379 0
-349 -382 0
-379 -382 0
-350 -380 0
-350 -383 0
-380 -383 0
-351 -381 0
-351 -384 0
-381 -384 0
-355 -373 0
-355 -385 0
-373 -385 0
-356 -374 0
-356 -386 0
-374 -386 0
-357 -375 0
-357 -387 0
-375 -387 0
-364 -376 0
-364 -379 0
-376 -379 0
-365 -377 0
-365 -380 0
-377 -380 0
-366 -378 0
-366 -381 0
-378 -381 0
-370 -382 0
-370 -385 0
-382 -385 0
-371 -383 0
-371 -386 0
-383 -386 0
-372 -384 0
-372 -387 0
-384 -387 0
-307 -388 0
-307 -391 0
-388 -391 0
-308 -389 0
-308 -392 0
-389 -392 0
-309 -390 0
-309 -393 0
-390 -393 0
-388 -394 0
-388 -397 0
-394 -397 0
-389 -395 0
-389 -398 0
-395 -398 0
-390 -396 0
-390 -399 0
-396 -399 0
-343 -394 0
-343 -400 0
-394 -400 0
-344 -395 0
-344 -401 0
-395 -401 0
-345 -396 0
-345 -402 0
-396 -402 0
-352 -403 0
-352 -406 0
-403 -406 0
-353 -404 0
-353 -407 0
-404 -407 0
-354 -405 0
-354 -408 0
-405 -408 0
-331 -409 0
-331 -412 0
-409 -412 0
-332 -410 0
-332 -413 0
-410 -413 0
-333 -411 0
-333 -414 0
-411 -414 0
-391 -403 0
-391 -415 0
-403 -415 0
-392 -404 0
-392 -416 0
-404 -416 0
-393 -405 0
-393 -417 0
-405 -417 0
-397 -406 0
-397 -409 0
-406 -409 0
-398 -407 0
-398 -410 0
-407 -410 0
-399 -408 0
-399 -411 0
-408 -411 0
-400 -412 0
-400 -415 0
-412 -415 0
-401 -413 0
-401 -416 0
-413 -416 0
-402 -414 0
-402 -417 0
-414 -417 0
-418 -421 0
-418 -424 0
-421 -424 0
-419 -422 0
-419 -425 0
-422 -425 0
-420 -423 0
-420 -426 0
-423 -426 0
-418 -427 0
-418 -430 0
-427 -430 0
-419 -428 0
-419 -431 0
-428 -431 0
-420 -429 0
-420 -432 0
-429 -432 0
-358 -427 0
-358 -433 0
-427 -433 0
-359 -428 0
-359 -434 0
-428 -434 0
-360 -429 0
-360 -435 0
-429 -435 0
-367 -436 0
-367 -439 0
-436 -439 0
-368 -437 0
-368 -440 0
-437 -440 0
-369 -438 0
-369 -441 0
-438 -441 0
-442 -445 0
-442 -448 0
-445 -448 0
-443 -446 0
-443 -449 0
-446 -449 0
-444 -447 0
-444 -450 0
-447 -450 0
-421 -436 0
-421 -451 0
-436 -451 0
-422 -437 0
-422 -452 0
-437 -452 0
-423 -438 0
-423 -453 0
-438 -453 0
-430 -439 0
-430 -442 0
-439 -442 0
-431 -440 0
-431 -443 0
-440 -443 0
-432 -441 0
-432 -444 0
-441 -444 0
-433 -445 0
-433 -451 0
-445 -451 0
-434 -446 0
-434 -452 0
-446 -452 0
-435 -447 0
-435 -453 0
-447 -453 0
-454 -457 0
-454 -460 0
-457 -460 0
-455 -458 0
-455 -461 0
-458 -461 0
-456 -459 0
-456 -462 0
-459 -462 0
-463 -466 0
-463 -469 0
-466 -469 0
-464 -467 0
-464 -470 0
-467 -470 0
-465 -468 0
-465 -471 0
-468 -471 0
-154 -463 0
-154 -472 0
-463 -472 0
-155 -464 0
-155 -473 0
-464 -473 0
-156 -465 0
-156 -474 0
-465 -474 0
-178 -475 0
-178 -478 0
-475 -478 0
-179 -476 0
-179 -479 0
-476 -479 0
-180 -477 0
-180 -480 0
-477 -480 0
-454 -475 0
-454 -481 0
-475 -481 0
-455 -476 0
-455 -482 0
-476 -482 0
-456 -477 0
-456 -483 0
-477 -483 0
-457 -484 0
-457 -487 0
-484 -487 0
-458 -485 0
-458 -488 0
-485 -488 0
-459 -486 0
-459 -489 0
-486 -489 0
-466 -490 0
-466 -493 0
-490 -493 0
-467 -491 0
-467 -494 0
-491 -494 0
-468 -492 0
-468 -495 0
-492 -495 0
-472 -484 0
-472 -496 0
-484 -496 0
-473 -485 0
-473 -497 0
-485 -497 0
-474 -486 0
-474 -498 0
-486 -498 0
-478 -487 0
-478 -490 0
-487 -490 0
-479 -488 0
-479 -491 0
-488 -491 0
-480 -489 0
-480 -492 0
-489 -492 0
-481 -493 0
-481 -496 0
-493 -496 0
-482 -494 0
-482 -497 0
-494 -497 0
-483 -495 0
-483 -498 0
-495 -498 0
-424 -499 0
-424 -502 0
-499 -502 0
-425 -500 0
-425 -503 0
-500 -503 0
-426 -501 0
-426 -504 0
-501 -504 0
-499 -505 0
-499 -508 0
-505 -508 0
-500 -506 0
-500 -509 0
-506 -509 0
-501 -507 0
-501 -510 0
-507 -510 0
-460 -505 0
-460 -511 0
-505 -511 0
-461 -506 0
-461 -512 0
-506 -512 0
-462 -507 0
-462 -513 0
-507 -513 0
-469 -514 0
-469 -517 0
-514 -517 0
-470 -515 0
-470 -518 0
-515 -518 0
-471 -516 0
-471 -519 0
-516 -519 0
-448 -520 0
-448 -523 0
-520 -523 0
-449 -521 0
-449 -524 0
-521 -524 0
-450 -522 0
-450 -525 0
-522 -525 0
-502 -514 0
-502 -526 0
-514 -526 0
-503 -515 0
-503 -527 0
-515 -527 0
-504 -516 0
-504 -528 0
-516 -528 0
-508 -517 0
-508 -520 0
-517 -520 0
-509 -518 0
-509 -521 0
-518 -521 0
-510 -519 0
-510 -522 0
-519 -522 0
-511 -523 0
-511 -526 0
-523 -526 0
-512 -524 0
-512 -527 0
-524 -527 0
-513 -525 0
-513 -528 0
-525 -528 0
-1 529 0
-2 535 0
-529 535 0
-2 -529 536 0
-530 536 0
-2 -530 537 0
-531 537 0
-2 -531 538 0
-532 538 0
-2 -532 539 0
-533 539 0
-2 -533 540 0
-534 540 0
-3 541 0
-535 541 0
-3 -535 542 0
-536 542 0
-3 -536 543 0
-537 543 0
-3 -537 544 0
-538 544 0
-3 -538 545 0
-539 545 0
-3 -539 546 0
-540 546 0
-4 547 0
-541 547 0
-4 -541 548 0
-542 548 0
-4 -542 549 0
-543 549 0
-4 -543 550 0
-544 550 0
-4 -544 551 0
-545 551 0
-4 -545 552 0
-546 552 0
-5 553 0
-547 553 0
-5 -547 554 0
-548 554 0
-5 -548 555 0
-549 555 0
-5 -549 556 0
-550 556 0
-5 -550 557 0
-551 557 0
-5 -551 558 0
-552 558 0
-6 559 0
-553 559 0
-6 -553 560 0
-554 560 0
-6 -554 561 0
-555 561 0
-6 -555 562 0
-556 562 0
-6 -556 563 0
-557 563 0
-6 -557 564 0
-558 564 0
-7 565 0
-559 565 0
-7 -559 566 0
-560 566 0
-7 -560 567 0
-561 567 0
-7 -561 568 0
-562 568 0
-7 -562 569 0
-563 569 0
-7 -563 570 0
-564 570 0
-8 571 0
-565 571 0
-8 -565 572 0
-566 572 0
-8 -566 573 0
-567 573 0
-8 -567 574 0
-568 574 0
-8 -568 575 0
-569 575 0
-8 -569 576 0
-570 576 0
-9 577 0
-571 577 0
-9 -571 578 0
-572 578 0
-9 -572 579 0
-573 579 0
-9 -573 580 0
-574 580 0
-9 -574 581 0
-575 581 0
-9 -575 582 0
-576 582 0
-10 583 0
-577 583 0
-10 -577 584 0
-578 584 0
-10 -578 585 0
-579 585 0
-10 -579 586 0
-580 586 0
-10 -580 587 0
-581 587 0
-10 -581 588 0
-582 588 0
-11 589 0
-583 589 0
-11 -583 590 0
-584 590 0
-11 -584 591 0
-585 591 0
-11 -585 592 0
-586 592 0
-11 -586 593 0
-587 593 0
-11 -587 594 0
-588 594 0
-12 595 0
-589 595 0
-12 -589 596 0
-590 596 0
-12 -590 597 0
-591 597 0
-12 -591 598 0
-592 598 0
-12 -592 599 0
-593 599 0
-12 -593 600 0
-594 600 0
-13 601 0
-595 601 0
-13 -595 602 0
-596 602 0
-13 -596 603 0
-597 603 0
-13 -597 604 0
-598 604 0
-13 -598 605 0
-599 605 0
-13 -599 606 0
-600 606 0
-14 607 0
-601 607 0
-14 -601 608 0
-602 608 0
-14 -602 609 0
-603 609 0
-14 -603 610 0
-604 610 0
-14 -604 611 0
-605 611 0
-14 -605 612 0
-606 612 0
-15 613 0
-607 613 0
-15 -607 614 0
-608 614 0
-15 -608 615 0
-609 615 0
-15 -609 616 0
-610 616 0
-15 -610 617 0
-611 617 0
-15 -611 618 0
-612 618 0
-16 619 0
-613 619 0
-16 -613 620 0
-614 620 0
-16 -614 621 0
-615 621 0
-16 -615 622 0
-616 622 0
-16 -616 623 0
-617 623 0
-16 -617 624 0
-618 624 0
-17 625 0
-619 625 0
-17 -619 626 0
-620 626 0
-17 -620 627 0
-621 627 0
-17 -621 628 0
-622 628 0
-17 -622 629 0
-623 629 0
-17 -623 630 0
-624 630 0
-18 631 0
-625 631 0
-18 -625 632 0
-626 632 0
-18 -626 633 0
-627 633 0
-18 -627 634 0
-628 634 0
-18 -628 635 0
-629 635 0
-18 -629 636 0
-630 636 0
-19 637 0
-631 637 0
-19 -631 638 0
-632 638 0
-19 -632 639 0
-633 639 0
-19 -633 640 0
-634 640 0
-19 -634 641 0
-635 641 0
-19 -635 642 0
-636 642 0
-20 643 0
-637 643 0
-20 -637 644 0
-638 644 0
-20 -638 645 0
-639 645 0
-20 -639 646 0
-640 646 0
-20 -640 647 0
-641 647 0
-20 -641 648 0
-642 648 0
-21 649 0
-643 649 0
-21 -643 650 0
-644 650 0
-21 -644 651 0
-645 651 0
-21 -645 652 0
-646 652 0
-21 -646 653 0
-647 653 0
-21 -647 654 0
-648 654 0
-22 655 0
-649 655 0
-22 -649 656 0
-650 656 0
-22 -650 657 0
-651 657 0
-22 -651 658 0
-652 658 0
-22 -652 659 0
-653 659 0
-22 -653 660 0
-654 660 0
-23 661 0
-655 661 0
-23 -655 662 0
-656 662 0
-23 -656 663 0
-657 663 0
-23 -657 664 0
-658 664 0
-23 -658 665 0
-659 665 0
-23 -659 666 0
-660 666 0
-24 667 0
-661 667 0
-24 -661 668 0
-662 668 0
-24 -662 669 0
-663 669 0
-24 -663 670 0
-664 670 0
-24 -664 671 0
-665 671 0
-24 -665 672 0
-666 672 0
-25 673 0
-667 673 0
-25 -667 674 0
-668 674 0
-25 -668 675 0
-669 675 0
-25 -669 676 0
-670 676 0
-25 -670 677 0
-671 677 0
-25 -671 678 0
-672 678 0
-26 679 0
-673 679 0
-26 -673 680 0
-674 680 0
-26 -674 681 0
-675 681 0
-26 -675 682 0
-676 682 0
-26 -676 683 0
-677 683 0
-26 -677 684 0
-678 684 0
-27 685 0
-679 685 0
-27 -679 686 0
-680 686 0
-27 -680 687 0
-681 687 0
-27 -681 688 0
-682 688 0
-27 -682 689 0
-683 689 0
-27 -683 690 0
-684 690 0
-28 691 0
-685 691 0
-28 -685 692 0
-686 692 0
-28 -686 693 0
-687 693 0
-28 -687 694 0
-688 694 0
-28 -688 695 0
-689 695 0
-28 -689 696 0
-690 696 0
-29 697 0
-691 697 0
-29 -691 698 0
-692 698 0
-29 -692 699 0
-693 699 0
-29 -693 700 0
-694 700 0
-29 -694 701 0
-695 701 0
-29 -695 702 0
-696 702 0
-30 703 0
-697 703 0
-30 -697 704 0
-698 704 0
-30 -698 705 0
-699 705 0
-30 -699 706 0
-700 706 0
-30 -700 707 0
-701 707 0
-30 -701 708 0
-702 708 0
-31 709 0
-703 709 0
-31 -703 710 0
-704 710 0
-31 -704 711 0
-705 711 0
-31 -705 712 0
-706 712 0
-31 -706 713 0
-707 713 0
-31 -707 714 0
-708 714 0
-32 715 0
-709 715 0
-32 -709 716 0
-710 716 0
-32 -710 717 0
-711 717 0
-32 -711 718 0
-712 718 0
-32 -712 719 0
-713 719 0
-32 -713 720 0
-714 720 0
-33 721 0
-715 721 0
-33 -715 722 0
-716 722 0
-33 -716 723 0
-717 723 0
-33 -717 724 0
-718 724 0
-33 -718 725 0
-719 725 0
-33 -719 726 0
-720 726 0
-34 727 0
-721 727 0
-34 -721 728 0
-722 728 0
-34 -722 729 0
-723 729 0
-34 -723 730 0
-724 730 0
-34 -724 731 0
-725 731 0
-34 -725 732 0
-726 732 0
-35 733 0
-727 733 0
-35 -727 734 0
-728 734 0
-35 -728 735 0
-729 735 0
-35 -729 736 0
-730 736 0
-35 -730 737 0
-731 737 0
-35 -731 738 0
-732 738 0
-36 739 0
-733 739 0
-36 -733 740 0
-734 740 0
-36 -734 741 0
-735 741 0
-36 -735 742 0
-736 742 0
-36 -736 743 0
-737 743 0
-36 -737 744 0
-738 744 0
-37 745 0
-739 745 0
-37 -739 746 0
-740 746 0
-37 -740 747 0
-741 747 0
-37 -741 748 0
-742 748 0
-37 -742 749 0
-743 749 0
-37 -743 750 0
-744 750 0
-38 751 0
-745 751 0
-38 -745 752 0
-746 752 0
-38 -746 753 0
-747 753 0
-38 -747 754 0
-748 754 0
-38 -748 755 0
-749 755 0
-38 -749 756 0
-750 756 0
-39 757 0
-751 757 0
-39 -751 758 0
-752 758 0
-39 -752 759 0
-753 759 0
-39 -753 760 0
-754 760 0
-39 -754 761 0
-755 761 0
-39 -755 762 0
-756 762 0
-40 763 0
-757 763 0
-40 -757 764 0
-758 764 0
-40 -758 765 0
-759 765 0
-40 -759 766 0
-760 766 0
-40 -760 767 0
-761 767 0
-40 -761 768 0
-762 768 0
-41 769 0
-763 769 0
-41 -763 770 0
-764 770 0
-41 -764 771 0
-765 771 0
-41 -765 772 0
-766 772 0
-41 -766 773 0
-767 773 0
-41 -767 774 0
-768 774 0
-42 775 0
-769 775 0
-42 -769 776 0
-770 776 0
-42 -770 777 0
-771 777 0
-42 -771 778 0
-772 778 0
-42 -772 779 0
-773 779 0
-42 -773 780 0
-774 780 0
-43 781 0
-775 781 0
-43 -775 782 0
-776 782 0
-43 -776 783 0
-777 783 0
-43 -777 784 0
-778 784 0
-43 -778 785 0
-779 785 0
-43 -779 786 0
-780 786 0
-44 787 0
-781 787 0
-44 -781 788 0
-782 788 0
-44 -782 789 0
-783 789 0
-44 -783 790 0
-784 790 0
-44 -784 791 0
-785 791 0
-44 -785 792 0
-786 792 0
-45 793 0
-787 793 0
-45 -787 794 0
-788 794 0
-45 -788 795 0
-789 795 0
-45 -789 796 0
-790 796 0
-45 -790 797 0
-791 797 0
-45 -791 798 0
-792 798 0
-46 799 0
-793 799 0
-46 -793 800 0
-794 800 0
-46 -794 801 0
-795 801 0
-46 -795 802 0
-796 802 0
-46 -796 803 0
-797 803 0
-46 -797 804 0
-798 804 0
-47 805 0
-799 805 0
-47 -799 806 0
-800 806 0
-47 -800 807 0
-801 807 0
-47 -801 808 0
-802 808 0
-47 -802 809 0
-803 809 0
-47 -803 810 0
-804 810 0
-48 811 0
-805 811 0
-48 -805 812 0
-806 812 0
-48 -806 813 0
-807 813 0
-48 -807 814 0
-808 814 0
-48 -808 815 0
-809 815 0
-48 -809 816 0
-810 816 0
-49 817 0
-811 817 0
-49 -811 818 0
-812 818 0
-49 -812 819 0
-813 819 0
-49 -813 820 0
-814 820 0
-49 -814 821 0
-815 821 0
-49 -815 822 0
-816 822 0
-50 823 0
-817 823 0
-50 -817 824 0
-818 824 0
-50 -818 825 0
-819 825 0
-50 -819 826 0
-820 826 0
-50 -820 827 0
-821 827 0
-50 -821 828 0
-822 828 0
-51 829 0
-823 829 0
-51 -823 830 0
-824 830 0
-51 -824 831 0
-825 831 0
-51 -825 832 0
-826 832 0
-51 -826 833 0
-827 833 0
-51 -827 834 0
-828 834 0
-52 835 0
-829 835 0
-52 -829 836 0
-830 836 0
-52 -830 837 0
-831 837 0
-52 -831 838 0
-832 838 0
-52 -832 839 0
-833 839 0
-52 -833 840 0
-834 840 0
-53 841 0
-835 841 0
-53 -835 842 0
-836 842 0
-53 -836 843 0
-837 843 0
-53 -837 844 0
-838 844 0
-53 -838 845 0
-839 845 0
-53 -839 846 0
-840 846 0
-54 847 0
-841 847 0
-54 -841 848 0
-842 848 0
-54 -842 849 0
-843 849 0
-54 -843 850 0
-844 850 0
-54 -844 851 0
-845 851 0
-54 -845 852 0
-846 852 0
-55 853 0
-847 853 0
-55 -847 854 0
-848 854 0
-55 -848 855 0
-849 855 0
-55 -849 856 0
-850 856 0
-55 -850 857 0
-851 857 0
-55 -851 858 0
-852 858 0
-56 859 0
-853 859 0
-56 -853 860 0
-854 860 0
-56 -854 861 0
-855 861 0
-56 -855 862 0
-856 862 0
-56 -856 863 0
-857 863 0
-56 -857 864 0
-858 864 0
-57 865 0
-859 865 0
-57 -859 866 0
-860 866 0
-57 -860 867 0
-861 867 0
-57 -861 868 0
-862 868 0
-57 -862 869 0
-863 869 0
-57 -863 870 0
-864 870 0
-58 871 0
-865 871 0
-58 -865 872 0
-866 872 0
-58 -866 873 0
-867 873 0
-58 -867 874 0
-868 874 0
-58 -868 875 0
-869 875 0
-58 -869 876 0
-870 876 0
-59 877 0
-871 877 0
-59 -871 878 0
-872 878 0
-59 -872 879 0
-873 879 0
-59 -873 880 0
-874 880 0
-59 -874 881 0
-875 881 0
-59 -875 882 0
-876 882 0
-60 883 0
-877 883 0
-60 -877 884 0
-878 884 0
-60 -878 885 0
-879 885 0
-60 -879 886 0
-880 886 0
-60 -880 887 0
-881 887 0
-60 -881 888 0
-882 888 0
-61 889 0
-883 889 0
-61 -883 890 0
-884 890 0
-61 -884 891 0
-885 891 0
-61 -885 892 0
-886 892 0
-61 -886 893 0
-887 893 0
-61 -887 894 0
-888 894 0
-62 895 0
-889 895 0
-62 -889 896 0
-890 896 0
-62 -890 897 0
-891 897 0
-62 -891 898 0
-892 898 0
-62 -892 899 0
-893 899 0
-62 -893 900 0
-894 900 0
-63 901 0
-895 901 0
-63 -895 902 0
-896 902 0
-63 -896 903 0
-897 903 0
-63 -897 904 0
-898 904 0
-63 -898 905 0
-899 905 0
-63 -899 906 0
-900 906 0
-64 907 0
-901 907 0
-64 -901 908 0
-902 908 0
-64 -902 909 0
-903 909 0
-64 -903 910 0
-904 910 0
-64 -904 911 0
-905 911 0
-64 -905 912 0
-906 912 0
-65 913 0
-907 913 0
-65 -907 914 0
-908 914 0
-65 -908 915 0
-909 915 0
-65 -909 916 0
-910 916 0
-65 -910 917 0
-911 917 0
-65 -911 918 0
-912 918 0
-66 919 0
-913 919 0
-66 -913 920 0
-914 920 0
-66 -914 921 0
-915 921 0
-66 -915 922 0
-916 922 0
-66 -916 923 0
-917 923 0
-66 -917 924 0
-918 924 0
-67 925 0
-919 925 0
-67 -919 926 0
-920 926 0
-67 -920 927 0
-921 927 0
-67 -921 928 0
-922 928 0
-67 -922 929 0
-923 929 0
-67 -923 930 0
-924 930 0
-68 931 0
-925 931 0
-68 -925 932 0
-926 932 0
-68 -926 933 0
-927 933 0
-68 -927 934 0
-928 934 0
-68 -928 935 0
-929 935 0
-68 -929 936 0
-930 936 0
-69 937 0
-931 937 0
-69 -931 938 0
-932 938 0
-69 -932 939 0
-933 939 0
-69 -933 940 0
-934 940 0
-69 -934 941 0
-935 941 0
-69 -935 942 0
-936 942 0
-70 943 0
-937 943 0
-70 -937 944 0
-938 944 0
-70 -938 945 0
-939 945 0
-70 -939 946 0
-940 946 0
-70 -940 947 0
-941 947 0
-70 -941 948 0
-942 948 0
-71 949 0
-943 949 0
-71 -943 950 0
-944 950 0
-71 -944 951 0
-945 951 0
-71 -945 952 0
-946 952 0
-71 -946 953 0
-947 953 0
-71 -947 954 0
-948 954 0
-72 955 0
-949 955 0
-72 -949 956 0
-950 956 0
-72 -950 957 0
-951 957 0
-72 -951 958 0
-952 958 0
-72 -952 959 0
-953 959 0
-72 -953 960 0
-954 960 0
-73 961 0
-955 961 0
-73 -955 962 0
-956 962 0
-73 -956 963 0
-957 963 0
-73 -957 964 0
-958 964 0
-73 -958 965 0
-959 965 0
-73 -959 966 0
-960 966 0
-74 967 0
-961 967 0
-74 -961 968 0
-962 968 0
-74 -962 969 0
-963 969 0
-74 -963 970 0
-964 970 0
-74 -964 971 0
-965 971 0
-74 -965 972 0
-966 972 0
-75 973 0
-967 973 0
-75 -967 974 0
-968 974 0
-75 -968 975 0
-969 975 0
-75 -969 976 0
-970 976 0
-75 -970 977 0
-971 977 0
-75 -971 978 0
-972 978 0
-76 979 0
-973 979 0
-76 -973 980 0
-974 980 0
-76 -974 981 0
-975 981 0
-76 -975 982 0
-976 982 0
-76 -976 983 0
-977 983 0
-76 -977 984 0
-978 984 0
-77 985 0
-979 985 0
-77 -979 986 0
-980 986 0
-77 -980 987 0
-981 987 0
-77 -981 988 0
-982 988 0
-77 -982 989 0
-983 989 0
-77 -983 990 0
-984 990 0
-78 991 0
-985 991 0
-78 -985 992 0
-986 992 0
-78 -986 993 0
-987 993 0
-78 -987 994 0
-988 994 0
-78 -988 995 0
-989 995 0
-78 -989 996 0
-990 996 0
-79 997 0
-991 997 0
-79 -991 998 0
-992 998 0
-79 -992 999 0
-993 999 0
-79 -993 1000 0
-994 1000 0
-79 -994 1001 0
-995 1001 0
-79 -995 1002 0
-996 1002 0
-80 1003 0
-997 1003 0
-80 -997 1004 0
-998 1004 0
-80 -998 1005 0
-999 1005 0
-80 -999 1006 0
-1000 1006 0
-80 -1000 1007 0
-1001 1007 0
-80 -1001 1008 0
-1002 1008 0
-81 1009 0
-1003 1009 0
-81 -1003 1010 0
-1004 1010 0
-81 -1004 1011 0
-1005 1011 0
-81 -1005 1012 0
-1006 1012 0
-81 -1006 1013 0
-1007 1013 0
-81 -1007 1014 0
-1008 1014 0
-82 1015 0
-1009 1015 0
-82 -1009 1016 0
-1010 1016 0
-82 -1010 1017 0
-1011 1017 0
-82 -1011 1018 0
-1012 1018 0
-82 -1012 1019 0
-1013 1019 0
-82 -1013 1020 0
-1014 1020 0
-83 1021 0
-1015 1021 0
-83 -1015 1022 0
-1016 1022 0
-83 -1016 1023 0
-1017 1023 0
-83 -1017 1024 0
-1018 1024 0
-83 -1018 1025 0
-1019 1025 0
-83 -1019 1026 0
-1020 1026 0
-84 1027 0
-1021 1027 0
-84 -1021 1028 0
-1022 1028 0
-84 -1022 1029 0
-1023 1029 0
-84 -1023 1030 0
-1024 1030 0
-84 -1024 1031 0
-1025 1031 0
-84 -1025 1032 0
-1026 1032 0
-85 1033 0
-1027 1033 0
-85 -1027 1034 0
-1028 1034 0
-85 -1028 1035 0
-1029 1035 0
-85 -1029 1036 0
-1030 1036 0
-85 -1030 1037 0
-1031 1037 0
-85 -1031 1038 0
-1032 1038 0
-86 1039 0
-1033 1039 0
-86 -1033 1040 0
-1034 1040 0
-86 -1034 1041 0
-1035 1041 0
-86 -1035 1042 0
-1036 1042 0
-86 -1036 1043 0
-1037 1043 0
-86 -1037 1044 0
-1038 1044 0
-87 1045 0
-1039 1045 0
-87 -1039 1046 0
-1040 1046 0
-87 -1040 1047 0
-1041 1047 0
-87 -1041 1048 0
-1042 1048 0
-87 -1042 1049 0
-1043 1049 0
-87 -1043 1050 0
-1044 1050 0
-88 1051 0
-1045 1051 0
-88 -1045 1052 0
-1046 1052 0
-88 -1046 1053 0
-1047 1053 0
-88 -1047 1054 0
-1048 1054 0
-88 -1048 1055 0
-1049 1055 0
-88 -1049 1056 0
-1050 1056 0
-89 1057 0
-1051 1057 0
-89 -1051 1058 0
-1052 1058 0
-89 -1052 1059 0
-1053 1059 0
-89 -1053 1060 0
-1054 1060 0
-89 -1054 1061 0
-1055 1061 0
-89 -1055 1062 0
-1056 1062 0
-90 1063 0
-1057 1063 0
-90 -1057 1064 0
-1058 1064 0
-90 -1058 1065 0
-1059 1065 0
-90 -1059 1066 0
-1060 1066 0
-90 -1060 1067 0
-1061 1067 0
-90 -1061 1068 0
-1062 1068 0
-91 1069 0
-1063 1069 0
-91 -1063 1070 0
-1064 1070 0
-91 -1064 1071 0
-1065 1071 0
-91 -1065 1072 0
-1066 1072 0
-91 -1066 1073 0
-1067 1073 0
-91 -1067 1074 0
-1068 1074 0
-92 1075 0
-1069 1075 0
-92 -1069 1076 0
-1070 1076 0
-92 -1070 1077 0
-1071 1077 0
-92 -1071 1078 0
-1072 1078 0
-92 -1072 1079 0
-1073 1079 0
-92 -1073 1080 0
-1074 1080 0
-93 1081 0
-1075 1081 0
-93 -1075 1082 0
-1076 1082 0
-93 -1076 1083 0
-1077 1083 0
-93 -1077 1084 0
-1078 1084 0
-93 -1078 1085 0
-1079 1085 0
-93 -1079 1086 0
-1080 1086 0
-94 1087 0
-1081 1087 0
-94 -1081 1088 0
-1082 1088 0
-94 -1082 1089 0
-1083 1089 0
-94 -1083 1090 0
-1084 1090 0
-94 -1084 1091 0
-1085 1091 0
-94 -1085 1092 0
-1086 1092 0
-95 1093 0
-1087 1093 0
-95 -1087 1094 0
-1088 1094 0
-95 -1088 1095 0
-1089 1095 0
-95 -1089 1096 0
-1090 1096 0
-95 -1090 1097 0
-1091 1097 0
-95 -1091 1098 0
-1092 1098 0
-2 -534 0
-3 -540 0
-4 -546 0
-5 -552 0
-6 -558 0
-7 -564 0
-8 -570 0
-9 -576 0
-10 -582 0
-11 -588 0
-12 -594 0
-13 -600 0
-14 -606 0
-15 -612 0
-16 -618 0
-17 -624 0
-18 -630 0
-19 -636 0
-20 -642 0
-21 -648 0
-22 -654 0
-23 -660 0
-24 -666 0
-25 -672 0
-26 -678 0
-27 -684 0
-28 -690 0
-29 -696 0
-30 -702 0
-31 -708 0
-32 -714 0
-33 -720 0
-34 -726 0
-35 -732 0
-36 -738 0
-37 -744 0
-38 -750 0
-39 -756 0
-40 -762 0
-41 -768 0
-42 -774 0
-43 -780 0
-44 -786 0
-45 -792 0
-46 -798 0
-47 -804 0
-48 -810 0
-49 -816 0
-50 -822 0
-51 -828 0
-52 -834 0
-53 -840 0
-54 -846 0
-55 -852 0
-56 -858 0
-57 -864 0
-58 -870 0
-59 -876 0
-60 -882 0
-61 -888 0
-62 -894 0
-63 -900 0
-64 -906 0
-65 -912 0
-66 -918 0
-67 -924 0
-68 -930 0
-69 -936 0
-70 -942 0
-71 -948 0
-72 -954 0
-73 -960 0
-74 -966 0
-75 -972 0
-76 -978 0
-77 -984 0
-78 -990 0
-79 -996 0
-80 -1002 0
-81 -1008 0
-82 -1014 0
-83 -1020 0
-84 -1026 0
-85 -1032 0
-86 -1038 0
-87 -1044 0
-88 -1050 0
-89 -1056 0
-90 -1062 0
-91 -1068 0
-92 -1074 0
-93 -1080 0
-94 -1086 0
-95 -1092 0
-96 -1098 0
