c disjunction of the 16 negative Blanusa six-pole boundary instances
c selector 106 orbit 80 boundary 3 5 3 6 5 6
c selector 107 orbit 81 boundary 3 5 3 6 6 5
c selector 108 orbit 117 boundary 3 5 5 6 3 6
c selector 109 orbit 118 boundary 3 5 5 6 6 3
c selector 110 orbit 143 boundary 3 5 6 3 5 6
c selector 111 orbit 144 boundary 3 5 6 3 6 5
c selector 112 orbit 147 boundary 3 5 6 5 3 6
c selector 113 orbit 148 boundary 3 5 6 5 6 3
c selector 114 orbit 200 boundary 3 5 9 10 3 6
c selector 115 orbit 201 boundary 3 5 9 10 6 3
c selector 116 orbit 206 boundary 3 5 9 12 5 6
c selector 117 orbit 207 boundary 3 5 9 12 6 5
c selector 118 orbit 254 boundary 3 5 10 9 3 6
c selector 119 orbit 255 boundary 3 5 10 9 6 3
c selector 120 orbit 318 boundary 3 5 12 9 5 6
c selector 121 orbit 319 boundary 3 5 12 9 6 5
p cnf 121 1476
-1 -2 -3 0
-1 -2 -4 0
-1 -2 -5 0
-1 -3 -4 0
-1 -3 -5 0
-1 -4 -5 0
-2 -3 -4 0
-2 -3 -5 0
-2 -4 -5 0
-3 -4 -5 0
1 2 3 4 0
1 2 3 5 0
1 2 4 5 0
1 3 4 5 0
2 3 4 5 0
-6 -7 -8 0
-6 -7 -9 0
-6 -7 -10 0
-6 -8 -9 0
-6 -8 -10 0
-6 -9 -10 0
-7 -8 -9 0
-7 -8 -10 0
-7 -9 -10 0
-8 -9 -10 0
6 7 8 9 0
6 7 8 10 0
6 7 9 10 0
6 8 9 10 0
7 8 9 10 0
-11 -12 -13 0
-11 -12 -14 0
-11 -12 -15 0
-11 -13 -14 0
-11 -13 -15 0
-11 -14 -15 0
-12 -13 -14 0
-12 -13 -15 0
-12 -14 -15 0
-13 -14 -15 0
11 12 13 14 0
11 12 13 15 0
11 12 14 15 0
11 13 14 15 0
12 13 14 15 0
-16 -17 -18 0
-16 -17 -19 0
-16 -17 -20 0
-16 -18 -19 0
-16 -18 -20 0
-16 -19 -20 0
-17 -18 -19 0
-17 -18 -20 0
-17 -19 -20 0
-18 -19 -20 0
16 17 18 19 0
16 17 18 20 0
16 17 19 20 0
16 18 19 20 0
17 18 19 20 0
-21 -22 -23 0
-21 -22 -24 0
-21 -22 -25 0
-21 -23 -24 0
-21 -23 -25 0
-21 -24 -25 0
-22 -23 -24 0
-22 -23 -25 0
-22 -24 -25 0
-23 -24 -25 0
21 22 23 24 0
21 22 23 25 0
21 22 24 25 0
21 23 24 25 0
22 23 24 25 0
-26 -27 -28 0
-26 -27 -29 0
-26 -27 -30 0
-26 -28 -29 0
-26 -28 -30 0
-26 -29 -30 0
-27 -28 -29 0
-27 -28 -30 0
-27 -29 -30 0
-28 -29 -30 0
26 27 28 29 0
26 27 28 30 0
26 27 29 30 0
26 28 29 30 0
27 28 29 30 0
-31 -32 -33 0
-31 -32 -34 0
-31 -32 -35 0
-31 -33 -34 0
-31 -33 -35 0
-31 -34 -35 0
-32 -33 -34 0
-32 -33 -35 0
-32 -34 -35 0
-33 -34 -35 0
31 32 33 34 0
31 32 33 35 0
31 32 34 35 0
31 33 34 35 0
32 33 34 35 0
-36 -37 -38 0
-36 -37 -39 0
-36 -37 -40 0
-36 -38 -39 0
-36 -38 -40 0
-36 -39 -40 0
-37 -38 -39 0
-37 -38 -40 0
-37 -39 -40 0
-38 -39 -40 0
36 37 38 39 0
36 37 38 40 0
36 37 39 40 0
36 38 39 40 0
37 38 39 40 0
-41 -42 -43 0
-41 -42 -44 0
-41 -42 -45 0
-41 -43 -44 0
-41 -43 -45 0
-41 -44 -45 0
-42 -43 -44 0
-42 -43 -45 0
-42 -44 -45 0
-43 -44 -45 0
41 42 43 44 0
41 42 43 45 0
41 42 44 45 0
41 43 44 45 0
42 43 44 45 0
-46 -47 -48 0
-46 -47 -49 0
-46 -47 -50 0
-46 -48 -49 0
-46 -48 -50 0
-46 -49 -50 0
-47 -48 -49 0
-47 -48 -50 0
-47 -49 -50 0
-48 -49 -50 0
46 47 48 49 0
46 47 48 50 0
46 47 49 50 0
46 48 49 50 0
47 48 49 50 0
-51 -52 -53 0
-51 -52 -54 0
-51 -52 -55 0
-51 -53 -54 0
-51 -53 -55 0
-51 -54 -55 0
-52 -53 -54 0
-52 -53 -55 0
-52 -54 -55 0
-53 -54 -55 0
51 52 53 54 0
51 52 53 55 0
51 52 54 55 0
51 53 54 55 0
52 53 54 55 0
-56 -57 -58 0
-56 -57 -59 0
-56 -57 -60 0
-56 -58 -59 0
-56 -58 -60 0
-56 -59 -60 0
-57 -58 -59 0
-57 -58 -60 0
-57 -59 -60 0
-58 -59 -60 0
56 57 58 59 0
56 57 58 60 0
56 57 59 60 0
56 58 59 60 0
57 58 59 60 0
-61 -62 -63 0
-61 -62 -64 0
-61 -62 -65 0
-61 -63 -64 0
-61 -63 -65 0
-61 -64 -65 0
-62 -63 -64 0
-62 -63 -65 0
-62 -64 -65 0
-63 -64 -65 0
61 62 63 64 0
61 62 63 65 0
61 62 64 65 0
61 63 64 65 0
62 63 64 65 0
-66 -67 -68 0
-66 -67 -69 0
-66 -67 -70 0
-66 -68 -69 0
-66 -68 -70 0
-66 -69 -70 0
-67 -68 -69 0
-67 -68 -70 0
-67 -69 -70 0
-68 -69 -70 0
66 67 68 69 0
66 67 68 70 0
66 67 69 70 0
66 68 69 70 0
67 68 69 70 0
-71 -72 -73 0
-71 -72 -74 0
-71 -72 -75 0
-71 -73 -74 0
-71 -73 -75 0
-71 -74 -75 0
-72 -73 -74 0
-72 -73 -75 0
-72 -74 -75 0
-73 -74 -75 0
71 72 73 74 0
71 72 73 75 0
71 72 74 75 0
71 73 74 75 0
72 73 74 75 0
-76 -77 -78 0
-76 -77 -79 0
-76 -77 -80 0
-76 -78 -79 0
-76 -78 -80 0
-76 -79 -80 0
-77 -78 -79 0
-77 -78 -80 0
-77 -79 -80 0
-78 -79 -80 0
76 77 78 79 0
76 77 78 80 0
76 77 79 80 0
76 78 79 80 0
77 78 79 80 0
-81 -82 -83 0
-81 -82 -84 0
-81 -82 -85 0
-81 -83 -84 0
-81 -83 -85 0
-81 -84 -85 0
-82 -83 -84 0
-82 -83 -85 0
-82 -84 -85 0
-83 -84 -85 0
81 82 83 84 0
81 82 83 85 0
81 82 84 85 0
81 83 84 85 0
82 83 84 85 0
-86 -87 -88 0
-86 -87 -89 0
-86 -87 -90 0
-86 -88 -89 0
-86 -88 -90 0
-86 -89 -90 0
-87 -88 -89 0
-87 -88 -90 0
-87 -89 -90 0
-88 -89 -90 0
86 87 88 89 0
86 87 88 90 0
86 87 89 90 0
86 88 89 90 0
87 88 89 90 0
-91 -92 -93 0
-91 -92 -94 0
-91 -92 -95 0
-91 -93 -94 0
-91 -93 -95 0
-91 -94 -95 0
-92 -93 -94 0
-92 -93 -95 0
-92 -94 -95 0
-93 -94 -95 0
91 92 93 94 0
91 92 93 95 0
91 92 94 95 0
91 93 94 95 0
92 93 94 95 0
-96 -97 -98 0
-96 -97 -99 0
-96 -97 -100 0
-96 -98 -99 0
-96 -98 -100 0
-96 -99 -100 0
-97 -98 -99 0
-97 -98 -100 0
-97 -99 -100 0
-98 -99 -100 0
96 97 98 99 0
96 97 98 100 0
96 97 99 100 0
96 98 99 100 0
97 98 99 100 0
-101 -102 -103 0
-101 -102 -104 0
-101 -102 -105 0
-101 -103 -104 0
-101 -103 -105 0
-101 -104 -105 0
-102 -103 -104 0
-102 -103 -105 0
-102 -104 -105 0
-103 -104 -105 0
101 102 103 104 0
101 102 103 105 0
101 102 104 105 0
101 103 104 105 0
102 103 104 105 0
1 16 -31 0
1 -16 31 0
-1 16 31 0
-1 -16 -31 0
2 17 -32 0
2 -17 32 0
-2 17 32 0
-2 -17 -32 0
3 18 -33 0
3 -18 33 0
-3 18 33 0
-3 -18 -33 0
4 19 -34 0
4 -19 34 0
-4 19 34 0
-4 -19 -34 0
5 20 -35 0
5 -20 35 0
-5 20 35 0
-5 -20 -35 0
26 81 -91 0
26 -81 91 0
-26 81 91 0
-26 -81 -91 0
27 82 -92 0
27 -82 92 0
-27 82 92 0
-27 -82 -92 0
28 83 -93 0
28 -83 93 0
-28 83 93 0
-28 -83 -93 0
29 84 -94 0
29 -84 94 0
-29 84 94 0
-29 -84 -94 0
30 85 -95 0
30 -85 95 0
-30 85 95 0
-30 -85 -95 0
36 51 -66 0
36 -51 66 0
-36 51 66 0
-36 -51 -66 0
37 52 -67 0
37 -52 67 0
-37 52 67 0
-37 -52 -67 0
38 53 -68 0
38 -53 68 0
-38 53 68 0
-38 -53 -68 0
39 54 -69 0
39 -54 69 0
-39 54 69 0
-39 -54 -69 0
40 55 -70 0
40 -55 70 0
-40 55 70 0
-40 -55 -70 0
1 56 -101 0
1 -56 101 0
-1 56 101 0
-1 -56 -101 0
2 57 -102 0
2 -57 102 0
-2 57 102 0
-2 -57 -102 0
3 58 -103 0
3 -58 103 0
-3 58 103 0
-3 -58 -103 0
4 59 -104 0
4 -59 104 0
-4 59 104 0
-4 -59 -104 0
5 60 -105 0
5 -60 105 0
-5 60 105 0
-5 -60 -105 0
16 21 -26 0
16 -21 26 0
-16 21 26 0
-16 -21 -26 0
17 22 -27 0
17 -22 27 0
-17 22 27 0
-17 -22 -27 0
18 23 -28 0
18 -23 28 0
-18 23 28 0
-18 -23 -28 0
19 24 -29 0
19 -24 29 0
-19 24 29 0
-19 -24 -29 0
20 25 -30 0
20 -25 30 0
-20 25 30 0
-20 -25 -30 0
31 36 -41 0
31 -36 41 0
-31 36 41 0
-31 -36 -41 0
32 37 -42 0
32 -37 42 0
-32 37 42 0
-32 -37 -42 0
33 38 -43 0
33 -38 43 0
-33 38 43 0
-33 -38 -43 0
34 39 -44 0
34 -39 44 0
-34 39 44 0
-34 -39 -44 0
35 40 -45 0
35 -40 45 0
-35 40 45 0
-35 -40 -45 0
46 51 -56 0
46 -51 56 0
-46 51 56 0
-46 -51 -56 0
47 52 -57 0
47 -52 57 0
-47 52 57 0
-47 -52 -57 0
48 53 -58 0
48 -53 58 0
-48 53 58 0
-48 -53 -58 0
49 54 -59 0
49 -54 59 0
-49 54 59 0
-49 -54 -59 0
50 55 -60 0
50 -55 60 0
-50 55 60 0
-50 -55 -60 0
61 66 -71 0
61 -66 71 0
-61 66 71 0
-61 -66 -71 0
62 67 -72 0
62 -67 72 0
-62 67 72 0
-62 -67 -72 0
63 68 -73 0
63 -68 73 0
-63 68 73 0
-63 -68 -73 0
64 69 -74 0
64 -69 74 0
-64 69 74 0
-64 -69 -74 0
65 70 -75 0
65 -70 75 0
-65 70 75 0
-65 -70 -75 0
76 81 -86 0
76 -81 86 0
-76 81 86 0
-76 -81 -86 0
77 82 -87 0
77 -82 87 0
-77 82 87 0
-77 -82 -87 0
78 83 -88 0
78 -83 88 0
-78 83 88 0
-78 -83 -88 0
79 84 -89 0
79 -84 89 0
-79 84 89 0
-79 -84 -89 0
80 85 -90 0
80 -85 90 0
-80 85 90 0
-80 -85 -90 0
91 96 -101 0
91 -96 101 0
-91 96 101 0
-91 -96 -101 0
92 97 -102 0
92 -97 102 0
-92 97 102 0
-92 -97 -102 0
93 98 -103 0
93 -98 103 0
-93 98 103 0
-93 -98 -103 0
94 99 -104 0
94 -99 104 0
-94 99 104 0
-94 -99 -104 0
95 100 -105 0
95 -100 105 0
-95 100 105 0
-95 -100 -105 0
106 107 108 109 110 111 112 113 114 115 116 117 118 119 120 121 0
-106 6 76 0
-106 -6 -76 0
-106 7 77 0
-106 -7 -77 0
-106 8 -78 0
-106 -8 78 0
-106 9 -79 0
-106 -9 79 0
-106 10 -80 0
-106 -10 80 0
-106 11 61 0
-106 -11 -61 0
-106 12 -62 0
-106 -12 62 0
-106 13 63 0
-106 -13 -63 0
-106 14 -64 0
-106 -14 64 0
-106 15 -65 0
-106 -15 65 0
-106 21 46 0
-106 -21 -46 0
-106 22 47 0
-106 -22 -47 0
-106 23 -48 0
-106 -23 48 0
-106 24 -49 0
-106 -24 49 0
-106 25 -50 0
-106 -25 50 0
-106 41 -96 0
-106 -41 96 0
-106 42 97 0
-106 -42 -97 0
-106 43 98 0
-106 -43 -98 0
-106 44 -99 0
-106 -44 99 0
-106 45 -100 0
-106 -45 100 0
-106 6 71 0
-106 -6 -71 0
-106 7 -72 0
-106 -7 72 0
-106 8 73 0
-106 -8 -73 0
-106 9 -74 0
-106 -9 74 0
-106 10 -75 0
-106 -10 75 0
-106 11 -86 0
-106 -11 86 0
-106 12 87 0
-106 -12 -87 0
-106 13 88 0
-106 -13 -88 0
-106 14 -89 0
-106 -14 89 0
-106 15 -90 0
-106 -15 90 0
-107 6 76 0
-107 -6 -76 0
-107 7 77 0
-107 -7 -77 0
-107 8 -78 0
-107 -8 78 0
-107 9 -79 0
-107 -9 79 0
-107 10 -80 0
-107 -10 80 0
-107 11 61 0
-107 -11 -61 0
-107 12 -62 0
-107 -12 62 0
-107 13 63 0
-107 -13 -63 0
-107 14 -64 0
-107 -14 64 0
-107 15 -65 0
-107 -15 65 0
-107 21 46 0
-107 -21 -46 0
-107 22 47 0
-107 -22 -47 0
-107 23 -48 0
-107 -23 48 0
-107 24 -49 0
-107 -24 49 0
-107 25 -50 0
-107 -25 50 0
-107 41 -96 0
-107 -41 96 0
-107 42 97 0
-107 -42 -97 0
-107 43 98 0
-107 -43 -98 0
-107 44 -99 0
-107 -44 99 0
-107 45 -100 0
-107 -45 100 0
-107 6 -71 0
-107 -6 71 0
-107 7 72 0
-107 -7 -72 0
-107 8 73 0
-107 -8 -73 0
-107 9 -74 0
-107 -9 74 0
-107 10 -75 0
-107 -10 75 0
-107 11 86 0
-107 -11 -86 0
-107 12 -87 0
-107 -12 87 0
-107 13 88 0
-107 -13 -88 0
-107 14 -89 0
-107 -14 89 0
-107 15 -90 0
-107 -15 90 0
-108 6 76 0
-108 -6 -76 0
-108 7 77 0
-108 -7 -77 0
-108 8 -78 0
-108 -8 78 0
-108 9 -79 0
-108 -9 79 0
-108 10 -80 0
-108 -10 80 0
-108 11 61 0
-108 -11 -61 0
-108 12 -62 0
-108 -12 62 0
-108 13 63 0
-108 -13 -63 0
-108 14 -64 0
-108 -14 64 0
-108 15 -65 0
-108 -15 65 0
-108 21 46 0
-108 -21 -46 0
-108 22 -47 0
-108 -22 47 0
-108 23 48 0
-108 -23 -48 0
-108 24 -49 0
-108 -24 49 0
-108 25 -50 0
-108 -25 50 0
-108 41 -96 0
-108 -41 96 0
-108 42 97 0
-108 -42 -97 0
-108 43 98 0
-108 -43 -98 0
-108 44 -99 0
-108 -44 99 0
-108 45 -100 0
-108 -45 100 0
-108 6 71 0
-108 -6 -71 0
-108 7 72 0
-108 -7 -72 0
-108 8 -73 0
-108 -8 73 0
-108 9 -74 0
-108 -9 74 0
-108 10 -75 0
-108 -10 75 0
-108 11 -86 0
-108 -11 86 0
-108 12 87 0
-108 -12 -87 0
-108 13 88 0
-108 -13 -88 0
-108 14 -89 0
-108 -14 89 0
-108 15 -90 0
-108 -15 90 0
-109 6 76 0
-109 -6 -76 0
-109 7 77 0
-109 -7 -77 0
-109 8 -78 0
-109 -8 78 0
-109 9 -79 0
-109 -9 79 0
-109 10 -80 0
-109 -10 80 0
-109 11 61 0
-109 -11 -61 0
-109 12 -62 0
-109 -12 62 0
-109 13 63 0
-109 -13 -63 0
-109 14 -64 0
-109 -14 64 0
-109 15 -65 0
-109 -15 65 0
-109 21 46 0
-109 -21 -46 0
-109 22 -47 0
-109 -22 47 0
-109 23 48 0
-109 -23 -48 0
-109 24 -49 0
-109 -24 49 0
-109 25 -50 0
-109 -25 50 0
-109 41 -96 0
-109 -41 96 0
-109 42 97 0
-109 -42 -97 0
-109 43 98 0
-109 -43 -98 0
-109 44 -99 0
-109 -44 99 0
-109 45 -100 0
-109 -45 100 0
-109 6 -71 0
-109 -6 71 0
-109 7 72 0
-109 -7 -72 0
-109 8 73 0
-109 -8 -73 0
-109 9 -74 0
-109 -9 74 0
-109 10 -75 0
-109 -10 75 0
-109 11 86 0
-109 -11 -86 0
-109 12 87 0
-109 -12 -87 0
-109 13 -88 0
-109 -13 88 0
-109 14 -89 0
-109 -14 89 0
-109 15 -90 0
-109 -15 90 0
-110 6 76 0
-110 -6 -76 0
-110 7 77 0
-110 -7 -77 0
-110 8 -78 0
-110 -8 78 0
-110 9 -79 0
-110 -9 79 0
-110 10 -80 0
-110 -10 80 0
-110 11 61 0
-110 -11 -61 0
-110 12 -62 0
-110 -12 62 0
-110 13 63 0
-110 -13 -63 0
-110 14 -64 0
-110 -14 64 0
-110 15 -65 0
-110 -15 65 0
-110 21 -46 0
-110 -21 46 0
-110 22 47 0
-110 -22 -47 0
-110 23 48 0
-110 -23 -48 0
-110 24 -49 0
-110 -24 49 0
-110 25 -50 0
-110 -25 50 0
-110 41 96 0
-110 -41 -96 0
-110 42 97 0
-110 -42 -97 0
-110 43 -98 0
-110 -43 98 0
-110 44 -99 0
-110 -44 99 0
-110 45 -100 0
-110 -45 100 0
-110 6 71 0
-110 -6 -71 0
-110 7 -72 0
-110 -7 72 0
-110 8 73 0
-110 -8 -73 0
-110 9 -74 0
-110 -9 74 0
-110 10 -75 0
-110 -10 75 0
-110 11 -86 0
-110 -11 86 0
-110 12 87 0
-110 -12 -87 0
-110 13 88 0
-110 -13 -88 0
-110 14 -89 0
-110 -14 89 0
-110 15 -90 0
-110 -15 90 0
-111 6 76 0
-111 -6 -76 0
-111 7 77 0
-111 -7 -77 0
-111 8 -78 0
-111 -8 78 0
-111 9 -79 0
-111 -9 79 0
-111 10 -80 0
-111 -10 80 0
-111 11 61 0
-111 -11 -61 0
-111 12 -62 0
-111 -12 62 0
-111 13 63 0
-111 -13 -63 0
-111 14 -64 0
-111 -14 64 0
-111 15 -65 0
-111 -15 65 0
-111 21 -46 0
-111 -21 46 0
-111 22 47 0
-111 -22 -47 0
-111 23 48 0
-111 -23 -48 0
-111 24 -49 0
-111 -24 49 0
-111 25 -50 0
-111 -25 50 0
-111 41 96 0
-111 -41 -96 0
-111 42 97 0
-111 -42 -97 0
-111 43 -98 0
-111 -43 98 0
-111 44 -99 0
-111 -44 99 0
-111 45 -100 0
-111 -45 100 0
-111 6 -71 0
-111 -6 71 0
-111 7 72 0
-111 -7 -72 0
-111 8 73 0
-111 -8 -73 0
-111 9 -74 0
-111 -9 74 0
-111 10 -75 0
-111 -10 75 0
-111 11 86 0
-111 -11 -86 0
-111 12 -87 0
-111 -12 87 0
-111 13 88 0
-111 -13 -88 0
-111 14 -89 0
-111 -14 89 0
-111 15 -90 0
-111 -15 90 0
-112 6 76 0
-112 -6 -76 0
-112 7 77 0
-112 -7 -77 0
-112 8 -78 0
-112 -8 78 0
-112 9 -79 0
-112 -9 79 0
-112 10 -80 0
-112 -10 80 0
-112 11 61 0
-112 -11 -61 0
-112 12 -62 0
-112 -12 62 0
-112 13 63 0
-112 -13 -63 0
-112 14 -64 0
-112 -14 64 0
-112 15 -65 0
-112 -15 65 0
-112 21 -46 0
-112 -21 46 0
-112 22 47 0
-112 -22 -47 0
-112 23 48 0
-112 -23 -48 0
-112 24 -49 0
-112 -24 49 0
-112 25 -50 0
-112 -25 50 0
-112 41 96 0
-112 -41 -96 0
-112 42 -97 0
-112 -42 97 0
-112 43 98 0
-112 -43 -98 0
-112 44 -99 0
-112 -44 99 0
-112 45 -100 0
-112 -45 100 0
-112 6 71 0
-112 -6 -71 0
-112 7 72 0
-112 -7 -72 0
-112 8 -73 0
-112 -8 73 0
-112 9 -74 0
-112 -9 74 0
-112 10 -75 0
-112 -10 75 0
-112 11 -86 0
-112 -11 86 0
-112 12 87 0
-112 -12 -87 0
-112 13 88 0
-112 -13 -88 0
-112 14 -89 0
-112 -14 89 0
-112 15 -90 0
-112 -15 90 0
-113 6 76 0
-113 -6 -76 0
-113 7 77 0
-113 -7 -77 0
-113 8 -78 0
-113 -8 78 0
-113 9 -79 0
-113 -9 79 0
-113 10 -80 0
-113 -10 80 0
-113 11 61 0
-113 -11 -61 0
-113 12 -62 0
-113 -12 62 0
-113 13 63 0
-113 -13 -63 0
-113 14 -64 0
-113 -14 64 0
-113 15 -65 0
-113 -15 65 0
-113 21 -46 0
-113 -21 46 0
-113 22 47 0
-113 -22 -47 0
-113 23 48 0
-113 -23 -48 0
-113 24 -49 0
-113 -24 49 0
-113 25 -50 0
-113 -25 50 0
-113 41 96 0
-113 -41 -96 0
-113 42 -97 0
-113 -42 97 0
-113 43 98 0
-113 -43 -98 0
-113 44 -99 0
-113 -44 99 0
-113 45 -100 0
-113 -45 100 0
-113 6 -71 0
-113 -6 71 0
-113 7 72 0
-113 -7 -72 0
-113 8 73 0
-113 -8 -73 0
-113 9 -74 0
-113 -9 74 0
-113 10 -75 0
-113 -10 75 0
-113 11 86 0
-113 -11 -86 0
-113 12 87 0
-113 -12 -87 0
-113 13 -88 0
-113 -13 88 0
-113 14 -89 0
-113 -14 89 0
-113 15 -90 0
-113 -15 90 0
-114 6 76 0
-114 -6 -76 0
-114 7 77 0
-114 -7 -77 0
-114 8 -78 0
-114 -8 78 0
-114 9 -79 0
-114 -9 79 0
-114 10 -80 0
-114 -10 80 0
-114 11 61 0
-114 -11 -61 0
-114 12 -62 0
-114 -12 62 0
-114 13 63 0
-114 -13 -63 0
-114 14 -64 0
-114 -14 64 0
-114 15 -65 0
-114 -15 65 0
-114 21 46 0
-114 -21 -46 0
-114 22 -47 0
-114 -22 47 0
-114 23 -48 0
-114 -23 48 0
-114 24 49 0
-114 -24 -49 0
-114 25 -50 0
-114 -25 50 0
-114 41 -96 0
-114 -41 96 0
-114 42 97 0
-114 -42 -97 0
-114 43 -98 0
-114 -43 98 0
-114 44 99 0
-114 -44 -99 0
-114 45 -100 0
-114 -45 100 0
-114 6 71 0
-114 -6 -71 0
-114 7 72 0
-114 -7 -72 0
-114 8 -73 0
-114 -8 73 0
-114 9 -74 0
-114 -9 74 0
-114 10 -75 0
-114 -10 75 0
-114 11 -86 0
-114 -11 86 0
-114 12 87 0
-114 -12 -87 0
-114 13 88 0
-114 -13 -88 0
-114 14 -89 0
-114 -14 89 0
-114 15 -90 0
-114 -15 90 0
-115 6 76 0
-115 -6 -76 0
-115 7 77 0
-115 -7 -77 0
-115 8 -78 0
-115 -8 78 0
-115 9 -79 0
-115 -9 79 0
-115 10 -80 0
-115 -10 80 0
-115 11 61 0
-115 -11 -61 0
-115 12 -62 0
-115 -12 62 0
-115 13 63 0
-115 -13 -63 0
-115 14 -64 0
-115 -14 64 0
-115 15 -65 0
-115 -15 65 0
-115 21 46 0
-115 -21 -46 0
-115 22 -47 0
-115 -22 47 0
-115 23 -48 0
-115 -23 48 0
-115 24 49 0
-115 -24 -49 0
-115 25 -50 0
-115 -25 50 0
-115 41 -96 0
-115 -41 96 0
-115 42 97 0
-115 -42 -97 0
-115 43 -98 0
-115 -43 98 0
-115 44 99 0
-115 -44 -99 0
-115 45 -100 0
-115 -45 100 0
-115 6 -71 0
-115 -6 71 0
-115 7 72 0
-115 -7 -72 0
-115 8 73 0
-115 -8 -73 0
-115 9 -74 0
-115 -9 74 0
-115 10 -75 0
-115 -10 75 0
-115 11 86 0
-115 -11 -86 0
-115 12 87 0
-115 -12 -87 0
-115 13 -88 0
-115 -13 88 0
-115 14 -89 0
-115 -14 89 0
-115 15 -90 0
-115 -15 90 0
-116 6 76 0
-116 -6 -76 0
-116 7 77 0
-116 -7 -77 0
-116 8 -78 0
-116 -8 78 0
-116 9 -79 0
-116 -9 79 0
-116 10 -80 0
-116 -10 80 0
-116 11 61 0
-116 -11 -61 0
-116 12 -62 0
-116 -12 62 0
-116 13 63 0
-116 -13 -63 0
-116 14 -64 0
-116 -14 64 0
-116 15 -65 0
-116 -15 65 0
-116 21 46 0
-116 -21 -46 0
-116 22 -47 0
-116 -22 47 0
-116 23 -48 0
-116 -23 48 0
-116 24 49 0
-116 -24 -49 0
-116 25 -50 0
-116 -25 50 0
-116 41 -96 0
-116 -41 96 0
-116 42 -97 0
-116 -42 97 0
-116 43 98 0
-116 -43 -98 0
-116 44 99 0
-116 -44 -99 0
-116 45 -100 0
-116 -45 100 0
-116 6 71 0
-116 -6 -71 0
-116 7 -72 0
-116 -7 72 0
-116 8 73 0
-116 -8 -73 0
-116 9 -74 0
-116 -9 74 0
-116 10 -75 0
-116 -10 75 0
-116 11 -86 0
-116 -11 86 0
-116 12 87 0
-116 -12 -87 0
-116 13 88 0
-116 -13 -88 0
-116 14 -89 0
-116 -14 89 0
-116 15 -90 0
-116 -15 90 0
-117 6 76 0
-117 -6 -76 0
-117 7 77 0
-117 -7 -77 0
-117 8 -78 0
-117 -8 78 0
-117 9 -79 0
-117 -9 79 0
-117 10 -80 0
-117 -10 80 0
-117 11 61 0
-117 -11 -61 0
-117 12 -62 0
-117 -12 62 0
-117 13 63 0
-117 -13 -63 0
-117 14 -64 0
-117 -14 64 0
-117 15 -65 0
-117 -15 65 0
-117 21 46 0
-117 -21 -46 0
-117 22 -47 0
-117 -22 47 0
-117 23 -48 0
-117 -23 48 0
-117 24 49 0
-117 -24 -49 0
-117 25 -50 0
-117 -25 50 0
-117 41 -96 0
-117 -41 96 0
-117 42 -97 0
-117 -42 97 0
-117 43 98 0
-117 -43 -98 0
-117 44 99 0
-117 -44 -99 0
-117 45 -100 0
-117 -45 100 0
-117 6 -71 0
-117 -6 71 0
-117 7 72 0
-117 -7 -72 0
-117 8 73 0
-117 -8 -73 0
-117 9 -74 0
-117 -9 74 0
-117 10 -75 0
-117 -10 75 0
-117 11 86 0
-117 -11 -86 0
-117 12 -87 0
-117 -12 87 0
-117 13 88 0
-117 -13 -88 0
-117 14 -89 0
-117 -14 89 0
-117 15 -90 0
-117 -15 90 0
-118 6 76 0
-118 -6 -76 0
-118 7 77 0
-118 -7 -77 0
-118 8 -78 0
-118 -8 78 0
-118 9 -79 0
-118 -9 79 0
-118 10 -80 0
-118 -10 80 0
-118 11 61 0
-118 -11 -61 0
-118 12 -62 0
-118 -12 62 0
-118 13 63 0
-118 -13 -63 0
-118 14 -64 0
-118 -14 64 0
-118 15 -65 0
-118 -15 65 0
-118 21 -46 0
-118 -21 46 0
-118 22 47 0
-118 -22 -47 0
-118 23 -48 0
-118 -23 48 0
-118 24 49 0
-118 -24 -49 0
-118 25 -50 0
-118 -25 50 0
-118 41 96 0
-118 -41 -96 0
-118 42 -97 0
-118 -42 97 0
-118 43 -98 0
-118 -43 98 0
-118 44 99 0
-118 -44 -99 0
-118 45 -100 0
-118 -45 100 0
-118 6 71 0
-118 -6 -71 0
-118 7 72 0
-118 -7 -72 0
-118 8 -73 0
-118 -8 73 0
-118 9 -74 0
-118 -9 74 0
-118 10 -75 0
-118 -10 75 0
-118 11 -86 0
-118 -11 86 0
-118 12 87 0
-118 -12 -87 0
-118 13 88 0
-118 -13 -88 0
-118 14 -89 0
-118 -14 89 0
-118 15 -90 0
-118 -15 90 0
-119 6 76 0
-119 -6 -76 0
-119 7 77 0
-119 -7 -77 0
-119 8 -78 0
-119 -8 78 0
-119 9 -79 0
-119 -9 79 0
-119 10 -80 0
-119 -10 80 0
-119 11 61 0
-119 -11 -61 0
-119 12 -62 0
-119 -12 62 0
-119 13 63 0
-119 -13 -63 0
-119 14 -64 0
-119 -14 64 0
-119 15 -65 0
-119 -15 65 0
-119 21 -46 0
-119 -21 46 0
-119 22 47 0
-119 -22 -47 0
-119 23 -48 0
-119 -23 48 0
-119 24 49 0
-119 -24 -49 0
-119 25 -50 0
-119 -25 50 0
-119 41 96 0
-119 -41 -96 0
-119 42 -97 0
-119 -42 97 0
-119 43 -98 0
-119 -43 98 0
-119 44 99 0
-119 -44 -99 0
-119 45 -100 0
-119 -45 100 0
-119 6 -71 0
-119 -6 71 0
-119 7 72 0
-119 -7 -72 0
-119 8 73 0
-119 -8 -73 0
-119 9 -74 0
-119 -9 74 0
-119 10 -75 0
-119 -10 75 0
-119 11 86 0
-119 -11 -86 0
-119 12 87 0
-119 -12 -87 0
-119 13 -88 0
-119 -13 88 0
-119 14 -89 0
-119 -14 89 0
-119 15 -90 0
-119 -15 90 0
-120 6 76 0
-120 -6 -76 0
-120 7 77 0
-120 -7 -77 0
-120 8 -78 0
-120 -8 78 0
-120 9 -79 0
-120 -9 79 0
-120 10 -80 0
-120 -10 80 0
-120 11 61 0
-120 -11 -61 0
-120 12 -62 0
-120 -12 62 0
-120 13 63 0
-120 -13 -63 0
-120 14 -64 0
-120 -14 64 0
-120 15 -65 0
-120 -15 65 0
-120 21 -46 0
-120 -21 46 0
-120 22 -47 0
-120 -22 47 0
-120 23 48 0
-120 -23 -48 0
-120 24 49 0
-120 -24 -49 0
-120 25 -50 0
-120 -25 50 0
-120 41 96 0
-120 -41 -96 0
-120 42 -97 0
-120 -42 97 0
-120 43 -98 0
-120 -43 98 0
-120 44 99 0
-120 -44 -99 0
-120 45 -100 0
-120 -45 100 0
-120 6 71 0
-120 -6 -71 0
-120 7 -72 0
-120 -7 72 0
-120 8 73 0
-120 -8 -73 0
-120 9 -74 0
-120 -9 74 0
-120 10 -75 0
-120 -10 75 0
-120 11 -86 0
-120 -11 86 0
-120 12 87 0
-120 -12 -87 0
-120 13 88 0
-120 -13 -88 0
-120 14 -89 0
-120 -14 89 0
-120 15 -90 0
-120 -15 90 0
-121 6 76 0
-121 -6 -76 0
-121 7 77 0
-121 -7 -77 0
-121 8 -78 0
-121 -8 78 0
-121 9 -79 0
-121 -9 79 0
-121 10 -80 0
-121 -10 80 0
-121 11 61 0
-121 -11 -61 0
-121 12 -62 0
-121 -12 62 0
-121 13 63 0
-121 -13 -63 0
-121 14 -64 0
-121 -14 64 0
-121 15 -65 0
-121 -15 65 0
-121 21 -46 0
-121 -21 46 0
-121 22 -47 0
-121 -22 47 0
-121 23 48 0
-121 -23 -48 0
-121 24 49 0
-121 -24 -49 0
-121 25 -50 0
-121 -25 50 0
-121 41 96 0
-121 -41 -96 0
-121 42 -97 0
-121 -42 97 0
-121 43 -98 0
-121 -43 98 0
-121 44 99 0
-121 -44 -99 0
-121 45 -100 0
-121 -45 100 0
-121 6 -71 0
-121 -6 71 0
-121 7 72 0
-121 -7 -72 0
-121 8 73 0
-121 -8 -73 0
-121 9 -74 0
-121 -9 74 0
-121 10 -75 0
-121 -10 75 0
-121 11 86 0
-121 -11 -86 0
-121 12 -87 0
-121 -12 87 0
-121 13 88 0
-121 -13 -88 0
-121 14 -89 0
-121 -14 89 0
-121 15 -90 0
-121 -15 90 0
