p cnf 65 210
1 2 -3 0
1 -2 3 0
-1 2 3 0
-1 -2 -3 0
16 17 -18 0
16 -17 18 0
-16 17 18 0
-16 -17 -18 0
4 5 -6 0
4 -5 6 0
-4 5 6 0
-4 -5 -6 0
19 20 -21 0
19 -20 21 0
-19 20 21 0
-19 -20 -21 0
1 7 -8 0
1 -7 8 0
-1 7 8 0
-1 -7 -8 0
16 22 -23 0
16 -22 23 0
-16 22 23 0
-16 -22 -23 0
7 9 -10 0
7 -9 10 0
-7 9 10 0
-7 -9 -10 0
22 24 -25 0
22 -24 25 0
-22 24 25 0
-22 -24 -25 0
2 4 -11 0
2 -4 11 0
-2 4 11 0
-2 -4 -11 0
17 19 -26 0
17 -19 26 0
-17 19 26 0
-17 -19 -26 0
9 11 -12 0
9 -11 12 0
-9 11 12 0
-9 -11 -12 0
24 26 -27 0
24 -26 27 0
-24 26 27 0
-24 -26 -27 0
3 13 -14 0
3 -13 14 0
-3 13 14 0
-3 -13 -14 0
18 28 -29 0
18 -28 29 0
-18 28 29 0
-18 -28 -29 0
5 8 -15 0
5 -8 15 0
-5 8 15 0
-5 -8 -15 0
20 23 -30 0
20 -23 30 0
-20 23 30 0
-20 -23 -30 0
6 10 -13 0
6 -10 13 0
-6 10 13 0
-6 -10 -13 0
21 25 -28 0
21 -25 28 0
-21 25 28 0
-21 -25 -28 0
12 14 -15 0
12 -14 15 0
-12 14 15 0
-12 -14 -15 0
27 29 -30 0
27 -29 30 0
-27 29 30 0
-27 -29 -30 0
1 16 0
5 20 0
10 25 0
11 26 0
14 29 0
-31 2 0
-31 17 0
31 -2 -17 0
-32 3 0
-32 18 0
32 -3 -18 0
-33 7 0
-33 22 0
33 -7 -22 0
-34 8 0
-34 23 0
34 -8 -23 0
31 32 -35 0
31 -32 35 0
-31 32 35 0
-31 -32 -35 0
35 33 -36 0
35 -33 36 0
-35 33 36 0
-35 -33 -36 0
36 34 -37 0
36 -34 37 0
-36 34 37 0
-36 -34 -37 0
-37 0
-38 4 0
-38 19 0
38 -4 -19 0
-39 6 0
-39 21 0
39 -6 -21 0
-40 8 0
-40 23 0
40 -8 -23 0
-41 15 0
-41 30 0
41 -15 -30 0
38 39 -42 0
38 -39 42 0
-38 39 42 0
-38 -39 -42 0
42 40 -43 0
42 -40 43 0
-42 40 43 0
-42 -40 -43 0
43 41 -44 0
43 -41 44 0
-43 41 44 0
-43 -41 -44 0
-44 0
-45 6 0
-45 21 0
45 -6 -21 0
-46 7 0
-46 22 0
46 -7 -22 0
-47 9 0
-47 24 0
47 -9 -24 0
-48 13 0
-48 28 0
48 -13 -28 0
45 46 -49 0
45 -46 49 0
-45 46 49 0
-45 -46 -49 0
49 47 -50 0
49 -47 50 0
-49 47 50 0
-49 -47 -50 0
50 48 -51 0
50 -48 51 0
-50 48 51 0
-50 -48 -51 0
-51 0
-52 2 0
-52 17 0
52 -2 -17 0
-53 4 0
-53 19 0
53 -4 -19 0
-54 9 0
-54 24 0
54 -9 -24 0
-55 12 0
-55 27 0
55 -12 -27 0
52 53 -56 0
52 -53 56 0
-52 53 56 0
-52 -53 -56 0
56 54 -57 0
56 -54 57 0
-56 54 57 0
-56 -54 -57 0
57 55 -58 0
57 -55 58 0
-57 55 58 0
-57 -55 -58 0
-58 0
-59 3 0
-59 18 0
59 -3 -18 0
-60 12 0
-60 27 0
60 -12 -27 0
-61 13 0
-61 28 0
61 -13 -28 0
-62 15 0
-62 30 0
62 -15 -30 0
59 60 -63 0
59 -60 63 0
-59 60 63 0
-59 -60 -63 0
63 61 -64 0
63 -61 64 0
-63 61 64 0
-63 -61 -64 0
64 62 -65 0
64 -62 65 0
-64 62 65 0
-64 -62 -65 0
-65 0
